#LAMMPS Input file
# Title
clear

# ----- condition settings -----

variable bottom string 'Ni'
variable top    string 'Co'

variable x_displace equal 1.00 # shift x in top side
variable y_displace equal 0.00 # shift y in top side
variable z_displace equal 0.00 # shift z in top side

variable        tempm  index  1073.0 # K (heat)

variable        temph  index   673.0 # K (cool No.1)

variable        tempc  index   273.0 # K (cool No.2)

#variable        pres   index   0.001 # 0.0001 MPa (bar units)

variable        Erate  index    0.00 # 1/(1.0 fs), if Erate < 0.0 (compress)

variable        fs     index  0.0010 # 1.0 fs
variable        ps     index      20 # 20 ps

# -----other settings -----
variable        nstep  equal ${ps}/${fs}
variable        nsteph equal ${ps}/${fs}
variable        nstepc equal ${ps}/${fs}
variable        tdamp  equal ${fs}*100
#variable        pdamp  equal ${fs}*1000

# ----- Structure settings -----
units           metal
atom_style      atomic
dimension       3
boundary        p p s
read_data       data.in
replicate       6 3 1
timestep        ${fs}

# ----- Potential settings (MEAM)-----
# -----HEA (Co-Ni-Cr-Fe-Mn)
pair_style      meam/c
pair_coeff      * * ../../potentials/meam/CoNiCrFeMn.HEA.library.meam Co Ni Cr Fe Mn ../../potentials/meam/CoNiCrFeMn.HEA.meam ${bottom} ${top}

# ----- Potential settings (EAM)-----
#pair_style      eam/alloy
#pair_coeff      * * ../../potentials/eam/FeNiCrCoCu-heafixed.setfl ${bottom} ${top}
# -----(Ni-Al-Co)
#pair_style      eam/alloy
#pair_coeff      * * ../../potentials/eam/Mishin_updated-Ni-Al-Co-2013.eam.alloy ${bottom} ${top}
# -----(Al-Ti-Fe-Co-Ni)
#pair_style      eam/alloy
#pair_coeff      * * ../../potentials/eam/Zhou04/AlTiFeCoNi_Zhou04.eam.alloy ${bottom} ${top}

# Need to set mass to something, just to satisfy LAMMPS (COMB, BOP, SW or tersoff)
#mass 1 58.6934 # Ni ${bottom}
#mass 2 58.9332 # Co ${top}

min_style cg
minimize 1e-10 1e-10 1000 1000

# ----- setting -----

compute peratom all pe/atom
compute eatoms all reduce sum c_peratom

thermo 1
thermo_style custom step pe c_eatoms

#dump 1 all custom 1 ./cfg/dump.init.cfg id type xs ys zs c_peratom
dump        d1 all custom 1 cfg/run.init.cfg mass type xs ys zs id type c_peratom
dump_modify d1 element ${bottom} ${top}
run 0

variable E equal "c_eatoms"
variable Eo equal $E

group top type 1
displace_atoms top move ${x_displace} ${y_displace} ${z_displace} units box

#displace_atoms is the command neccessary to move atoms into the next stacking arrangement (ie: A -> B)

fix 2 all setforce 0 0 NULL
min_style cg
minimize 1e-10 1e-10 1000 1000
variable Ef equal "c_eatoms"
variable Cf equal 1.60217657e-16
variable A equal (lx*ly)*1e-20
variable SFE equal ((${Ef}-${Eo})*${Cf})/${A}

#variable Ef equal "c_eatoms" computes the final energy of the system after sliding is done
#variable A is the area of the Stacking fault plane
#variable Cf is the conversion factor of electro volts to millijoules
#variable SFE is the stacking-fault energy of the system
####################################
# SIMULATION DONE
print "All done"
print "Initial energy of atoms = ${Eo} eV"
print "Final energy of atoms = ${Ef} eV"
print "Stacking-fault energy = ${SFE} mJ/m^2"

# ----- Relax calculation (0 K) -----
thermo_style    custom step etotal temp lx vol press pxx pyy pxy
thermo          10

#fix             f1 all box/relax iso 0.0
#minimize        1.0e-10 0.0 1000 100000
#unfix           f1

# ----- Output setting -----
dump            d2 all cfg 100 cfg/run.temp.*.cfg mass type xs ys zs id type
dump_modify     d2 element ${bottom} ${top}

# ----- Check equilibriation setting -----
variable        energy equal etotal
variable        temperature equal temp
fix             fout1 all ave/time 1 100 100 v_energy v_temperature file out_energy.txt

# ----- Equilibriation (heat)-----
#velocity        all create 10.0 123456
#fix             f1 all npt temp 10.0 ${tempm} ${tdamp} iso 0.0 ${pres} ${pdamp}
#run             ${nstep} # 20 ps
#unfix           f1

# ----- Calculation (cool No.1)-----
fix             f1 all nvt temp ${tempm} ${temph} ${tdamp}
run             ${nsteph} # 20 ps
unfix           f1

# ----- Calculation (cool No.2)-----
fix             f1 all nvt temp ${temph} ${tempc} ${tdamp}
run             ${nstepc} # 20 ps
unfix           f1

# ----- Calculation -----
fix             f1 all deform 1 x erate ${Erate} remap x
fix             f2 all nvt temp ${tempc} ${tempc} ${tdamp}
run             ${nstep} # 20 ps
unfix           f1
unfix           f2

# ----- Radial Distribution Function -----
#comm_modify     cutoff 14
compute         distribution all rdf 240
fix             f1 all ave/time 1 1000 3000 c_distribution[*] file out_rdf.txt mode vector

# ----- Mean Square Displacement -----
group           ${bottom} type 1
compute         ${bottom}msd ${bottom} msd
fix             f2 all ave/time 1 1 5 c_${bottom}msd[*] file out_${bottom}_msd.txt
# -----
group           ${top} type 2
compute         ${top}msd ${top} msd
fix             f3 all ave/time 1 1 5 c_${top}msd[*] file out_${top}_msd.txt
# -----
compute         allmsd all msd
fix             f4 all ave/time 1 1 5 c_allmsd[*] file out_all_msd.txt

fix             f5 all nvt temp ${tempc} ${tempc} ${tdamp}
run             3000

# ----- Output restart data -----
write_data data.in.restart