# Monte Carlo relaxation of perturbed 3d lattice
clear

# ----- set these parameters ----- 
# make sure neigh skin > 2*deltamove

# ----- condition settings -----
variable        temp         index 298.0 # K
variable        styp         equal 4.0 # FCC:4.0, BCC:2.0

# -----other settings -----
variable        iter         loop  3000   # number of Monte Carlo moves
variable        deltaperturb equal 0.2    # max size of initial perturbation per dim
variable        deltamove    equal 0.1    # max size of MC move in one dimension
variable        kT           equal 25.7/1000.0/298.0*${temp} # effective T in Boltzmann factor, 25.7/1000 [eV] at 298 K
variable        seed         equal 582783 # RNG seed

# problem setup

# ----- Structure settings -----
units           metal
atom_style      atomic
atom_modify     map array sort 0 0.0
dimension       3
boundary        p p p
read_data       data.in
replicate       4 4 4

# ----- Potential settings (MEAM)-----
# -----HEA (Co-Ni-Cr-Fe-Mn)
pair_style      meam/c
pair_coeff      * * ./meam/CoNiCrFeMn.HEA.library.meam Co Ni Cr Fe Mn ./meam/CoNiCrFeMn.HEA.meam Co Ni Cr Fe
# -----(Al-Si-Mg-Cu-Fe)
#pair_style      meam/c
#pair_coeff      * * ./meam/Jelinek_2012_meam AlS SiS MgS CuS FeS ./meam/Jelinek_2012_meam.alsimgcufe AlS SiS MgS CuS
# -----(Fe-Mn-Si-C)
#pair_style      meam/c
#pair_coeff      * * ./meam/CFeMnSi.library.meam Fe Mn Si C ./meam/CFeMnSi.meam Fe Mn Si C

# ----- Potential settings (EAM)-----
# -----(Co-Ni-Cr-Fe-Cu)
#pair_style      eam/alloy
#pair_coeff      * * ./eam/FeNiCrCoCu-heafixed.setfl Co Ni Cr Fe

# -----(Fe-Ni-Cr-Co-Al)
#pair_style      eam/alloy
#pair_coeff      * * ./eam/FeNiCrCoAl-heaweight.setfl Fe Ni Cr Co Al

# -----(Ta-Hf-Zr-Ti)
#pair_style      eam/fs
#pair_coeff      * * ./eam/TaHfZrTi.eam.fs Ta Hf Zr Ti

# -----(Ag-Au-Cu-Ni-Pd-Pt)
#pair_style      eam
#pair_coeff      1 * ./eam/DYNAMO/cuu6.txt
#pair_coeff      2 * ./eam/DYNAMO/agu6.txt
#pair_coeff      3 * ./eam/DYNAMO/auu6.txt
#pair_coeff      4 * ./eam/DYNAMO/niu6.txt

# ----- Potential settings (EIM)-----
#pair_style      eim
#pair_coeff      * * Li Na K Rb Cs F Cl Br Id ./eim/BrClCsFIKLiNaRb.ffield.eim F K Li Na

neighbor        2.0 bin
neigh_modify    delay 0 every 1 check yes

variable        e equal pe

# ----- Calculation -----
# run 0 to get energy of perfect lattice
# emin = minimum energy
run             0
variable        emin equal $e

# disorder the system
# estart = initial energy

variable        x atom x+v_deltaperturb*random(-1.0,1.0,${seed})
variable        y atom y+v_deltaperturb*random(-1.0,1.0,${seed})
variable        z atom z+v_deltaperturb*random(-1.0,1.0,${seed})

set             group all x v_x
set             group all y v_y
set             group all z v_z

# ----- Output setting -----
dump            d1 all cfg 100 cfg/run.*.cfg mass type xs ys zs id type
dump_modify     d1 element Co Ni Cr Fe
#dump_modify     d1 element Al Si Mg Cu   # Al-Si-Mg-Cu-Fe
#dump_modify     d1 element Fe Mn Si C   # Fe-Mn-Si-C

#dump           1 all atom 25 dump.mc

#dump           2 all image 25 image.*.jpg type type &
#               zoom 1.6 adiam 1.0
#dump_modify    2 pad 5

#dump           3 all movie 25 movie.mpg type type &
#               zoom 1.6 adiam 1.0
#dump_modify    3 pad 5

variable        elast equal $e
thermo_style    custom step v_emin v_elast pe

run             0

variable        estart equal $e
variable        elast equal $e

# ----- loop over Monte Carlo moves ----- 

variable        naccept equal 0
variable        increment equal v_naccept+1
variable        irandom equal floor(atoms*random(0.0,1.0,${seed})+1)
variable        rn equal random(0.0,1.0,${seed})
variable        boltzfactor equal "exp((v_styp/atoms)*(v_elast - v_e) / v_kT)"
variable        xnew equal x[v_i]+v_deltamove*random(-1.0,1.0,${seed})
variable        ynew equal y[v_i]+v_deltamove*random(-1.0,1.0,${seed})
variable        znew equal z[v_i]+v_deltamove*random(-1.0,1.0,${seed})
variable        xi equal x[v_i]
variable        yi equal y[v_i]
variable        zi equal z[v_i]

label           loop

variable        i equal ${irandom}

variable        x0 equal ${xi}
variable        y0 equal ${yi}
variable        z0 equal ${zi}

set             atom $i x ${xnew}
set             atom $i y ${ynew}
set             atom $i z ${znew}

run             1 pre no post no

if "$e <= ${elast}" then &
  "variable elast equal $e" &
  "variable naccept equal ${increment}" &
elif "${rn} <= ${boltzfactor}" &
  "variable elast equal $e" &
  "variable naccept equal ${increment}" &
else &
  "set atom $i x ${x0}" &
  "set atom $i y ${y0}" &
  "set atom $i z ${z0}"

next            iter
jump            SELF loop

# ----- final energy and stats ----- 

variable        nb equal nbuild
variable        nbuild equal ${nb}

run             0

print           "MC stats:"
print           "  starting energy = ${estart} [eV]"
print           "  final energy = $e [eV]"
print           "  minimum energy of perfect lattice = ${emin} [eV]"
print           "  accepted MC moves = ${naccept}"
print           "  neighbor list rebuilds = ${nbuild}"

# ----- Output restart data -----
write_data data.in.restart