# Tensile straining calculation

# --- initialization ---
units metal
dimension 3
boundary p p p
atom_style atomic
atom_modify map array

# --- inputs ---
variable t equal 298 # temperature
variable srate equal 2.0e8 # Strain rate/s
variable i equal 20 # Strain %
variable e equal "v_srate/1.0e12" # To convent to ps
variable r equal "(v_i*10)/v_e" # Timesteps calculation

variable h equal "v_r/50" # Output data
variable g equal "v_r/200" # Output visualizations

# --- importing model ---
region total block -150 150 -150 150 -150 150
create_box 3 total
region supercell block INF INF INF INF INF INF
read_data NCsystem.lmp add merge group NC

# --- potential ---
pair_style meam
pair_coeff * * library.meam Co Fe V CoFeV.meam Co Fe V

# --- settings ---
compute peratom all pe/atom
compute 2 all stress/atom NULL

neighbor 0.3 bin
neigh_modify delay 10
thermo 100
velocity all create $t 16723
thermo_style custom step temp etotal press pxx pyy pzz lx ly lz

# --- energy equilibration ---
fix 1 all nve
fix 2 all temp/rescale 10 $t $t 1.0 0.5
run 100000
unfix 1
unfix 2

# --- pressure equilibration ---
fix 1 all npt temp $t $t 1 aniso 0 0 1 drag 1
run 100000
unfix 1
$ Store cell length for strain calculation
variable tmp equal "lz"
variable L0 equal ${tmp}
print "Initial Length, L0: ${L0}"

# --- deformation ---
reset_timestep 0
fix 1 all npt temp $t $t 1 x 0 0 1 y 0 0 1 drag 1
fix 2 all deform 1 z erate $e units box remap x
# Output strain and stress info to file
# for units metal, pressure is in [bars] = 100 [kPa] = 1/10000 [GPa]
# p2, p3, p4 are in GPa
variable strain equal "(lz - v_L0)/v_L0"
variable p1 equal "v_strain"
variable p2 equal "-pxx/10000"
variable p3 equal "-pyy/10000"
variable p4 equal "-pzz/10000"
variable p5 equal "lx"
variable p6 equal "ly"
variable p7 equal "lz"
variable p8 equal "temp"
variable p9 equal "pe"
variable p10 equal "ke"
fix 3 all print $h "${p1} ${p2} ${p3} ${p4} ${p5} ${p6} ${p7} ${p8} ${p9} ${p10}" file Load.txt screen no title 'Strain ppx ppy ppz lx ly lz temp pe ke'
dump 1 all custom $g Visual.ovi id type x y z # Visualizations for Ovito
thermo 1000 # Display thermo
thermo_style custom step v_strain temp v_p2 v_p3 v_p4 ke pe press
run $r
 