# MC-MD calculation

# --- initialization ---
units metal # In the original paper, it is described as real.
dimension 3
boundary p p p
atom_style atomic
atom_modify map array

variable t equal 298 # temperature

# --- importing model ---
region total block -150 150 -150 150 -150 150
create_box 3 total
region supercell block INF INF INF INF INF INF
read_data NCsystem.lmp add merge group NC

# --- potential ---
pair_style meam
pair_coeff * * library.meam Co Fe V CoFeV.meam Co Fe V

# --- settings ---
compute peratom all pe/atom
compute 2 all stress/atom NULL

neighbor 0.3 bin
neigh_modify delay 10
thermo 100
velocity all create $t 16723
thermo_style custom step temp etotal press pxx pyy pzz lx ly lz

# --- energy equilibration ---
fix 1 all nve
fix 2 all temp/rescale 10 $t $t 1.0 0.5
run 100000
unfix 1
unfix 2

# --- pressure equilibration ---
fix 1 all npt temp $t $t 1 aniso 0 0 1 drag 1
run 100000
unfix 1

# --- MC + MD swapping
reset_timestep 0
fix all npt temp $t $t 1 aniso 0 0 1 drag 1
dump 2 all custom 25000 MCswap.ovi id type x y z # Visualizations for Ovito
run 5500000 every 10 &
  "fix MC1 all atom/swap 1 1 12345678 ke no types 1 2" &
  "fix MC2 all atom/swap 1 1 12345678 ke no types 1 3" &
  "fix MC3 all atom/swap 1 1 12345678 ke no types 2 3" &
  "run 3330"