# Compression Simulations Input with Ni Nanolayer and Relaxation
# LAMMPS input file that defines a Ni nanolayer in the pure Ag and relaxes the model.
# Compression in pure Ag with Ni nanolayer
# LAMMPS 64-bit 22Dec2022-MSMPI
#-------------------- Initialization -----------------------------------------------------
echo both
units metal
dimension 3
boundary p p p

#-------------------- Atom & Lattice description ----------------------------------------
atom_style atomic

#--------------------------------------------------------------
# case 1: make structure (20 x 20 x 20 [Angstrom^3], 2 x 2 x 2 [nm^3])
#--------------------------------------------------------------
lattice fcc 4.09 # Ag:4.09 Angstrom, Cu: 3.61 Angstrom

region box block 0 20 0 20 0 20 units box
create_box 2 box # set 2 types (for 2 elements (type 1:Ag and type 2: Ni))

region  ag block 0 20 0 20 0 20 units box
create_atoms 1 region ag units box

# creating composition using set command for Ag92-Ni8 alloy
set region ag type/fraction 2 0.08 12393 # set Ni 8%, randomly.
#--------------------------------------------------------------

#--------------------------------------------------------------
# case 2: read structure
#--------------------------------------------------------------
#read_data Data-ntAg-12nm-grs-NoTwin.in # original
#--------------------------------------------------------------

#-------------------- Force field --------------------------------------------------------
pair_style eam/fs
pair_coeff * * Ag-Ni.eam.fs Ag Ni

#-------------------- Settings -----------------------------------------------------------
neighbor 1.5 bin
neigh_modify delay 5

#Creating regions to replace with Ni
#-------------------------------------
#region 1 block INF INF INF INF 225 260 units box # original
#region 2 block INF INF INF INF -35   0 units box # original
#-------------------------------------
region 1 block INF INF INF INF INF   4 units box
region 2 block INF INF INF INF  16 INF units box

#Removing Ag atoms and adding Ni atoms
#-------------------------------------
delete_atoms region 1
create_atoms 2 random 500 698317 1
#-------------------------------------
delete_atoms region 2
create_atoms 2 random 500 612317 2
#-------------------------------------

#deleting GB atoms that are too close
delete_atoms overlap 0.5 all all

#-------------------- Energy Minimization ------------------------------------------------
# 0 [K], structure optimization
min_style cg
minimize 1.0e-4 1.0e-6 200 1000

#-------------------- Settings -----------------------------------------------------------
reset_timestep 0

timestep 0.005 # 5 [fs]

compute ctr all cna/atom 3.491
compute str all stress/atom NULL
compute pea all pe/atom
compute kea all ke/atom

thermo_style one
thermo 1000

#---------- output file settings -------------------
#dump 10 all custom 10000 coord0.xyz xs ys zs id type
#---------------------------------------------------
dump 2 all cfg 10000 cfg/run.*.cfg mass type xs ys zs id type xs ys zs c_ctr c_str[1] c_pea c_kea
dump_modify 2 element Ag Ni
#---------------------------------------------------

# Equilibration at 450 K, followed by cooling at 300K
velocity all create 450.0 36434 rot yes

#-------------------- Run the simulation -------------------------------------------------

# annealing: 450-450 K
fix 15 all npt temp 450 450 0.05 aniso 0.0 0.0 0.12 drag 2
run 20000
unfix 15

# annealing: 450-300 K
fix 15 all npt temp 450 300 0.05 aniso 0.0 0.0 0.12 drag 2
run 10000
unfix 15

# annealing: 300-300 K
fix 15 all npt temp 300 300 0.05 aniso 0.0 0.0 0.12 drag 2
run 10000
unfix 15

#undump 10

#-------------------- Output data file ---------------------------------------------------
#write_restart relax.restart-12nmgrs
#write_data Data-ntAg-Ni-12nmgrs-relaxed.in
write_data Ag92-Ni8.data

#-------------------- End ----------------------------------------------------------------