# Example LAMMPS script
# Description of the LAMMPS-program below
# The sample size is 100x24x24 unit cells, consisting of tungsten atoms with crystal
# direction [1 0 0] and has a lattice parameter 3.14339 Angstrom.
# The temperature is 700K. Potential function EAM4. Time step length 5 fs. Boundary conditions pss.
# This simulation first performs a relaxation process consisting of 50000 time steps.
# Thereafter it performs a tensile test where the strain rate is 1 x 10^8 [1/s]. 
# Here there are 500000 time steps. The screen output every 50 time steps will be: 
# step number, current length, volume, temperature, stress in x-direction, strain.
#-----------------------------------------------------------------------------------------
# strain rate: 0.0314339/dt [1/ps] = (0.0314339/0.005) x 10^12 [1/s] = 6.28 x 10^12 [1/s]
# L(t) = L(0)*(1 + es_rate*dt*step)
# strain [%] = 0.0314339 * 0.005 * 50000 * 100 = 785.8475 [%]
#-----------------------------------------------------------------------------------------

#-------------------- Defining type of atoms, dimensions and boundary conditions ---------
units metal
dimension 3
boundary p s s

#-------------------- Atom & Lattice description -----------------------------------------
atom_style atomic
variable latconst equal 3.14339

# Defining the lattice crating the toms.
lattice bcc ${latconst}

region nanowire block 0 314.339 0 75.44136 0 75.44136 units box
create_box 3 nanowire

lattice bcc ${latconst} orient x 1 0 0 orient y 0 1 0 orient z 0 0 1
create_atoms 1 region nanowire ratio 1 124546

# Defining the mass and atomic potential
mass * 183.84

#-------------------- Force field --------------------------------------------------------
pair_style eam/fs
pair_coeff * * w_eam4.fs W W W

#-------------------- relaxation process -------------------------------------------------

# Defining the timestep 
timestep 0.005 # 5 [fs]

#Store final cell length for strain calculations
variable tmp equal "lx"
variable  L0 equal ${tmp}
print "Initial Length, L0; ${L0}"

#Compute the stress for each atom and sum each component for all atoms
compute peratom all stress/atom NULL
compute sigmaxx all reduce ave c_peratom[1]

#Create a variable called strain, which calculates the strain.
variable strain equal "(lx - v_L0)/v_L0"

#Screen output
thermo 50
thermo_style custom step lx vol temp c_sigmaxx v_strain

dump 1 all atom 500 dump.all
dump_modify 1 append yes
#----------------------------
dump            d1 all cfg 50 cfg/run.*.cfg mass type xs ys zs id type vx vy vz fx fy fz
dump_modify     d1 element W W W
#----------------------------

# Creating initial velocities.
velocity all create 700 511124 rot yes mom yes

#-------------------- Run the simulation (NPT) -------------------------------------------

# Defining timeintegration, ensemble and temperature
fix 1 all npt temp 700 700 0.1 x 0 0 100

# Defining the number of timesteps.
run 50000

unfix 1

#-------------------- Run the simulation (deformation process) ---------------------------

# Defining strain rate. 0.0314339/dt [1/ps] = (0.0314339/0.005) x 10^12 [1/s] = 6.28 x 10^12 [1/s]
fix 9 all deform 1 x vel 0.0314339 units box

# Defining timeintegration, ensemble and temperature.
fix 6 all nvt temp 700 700 0.1

#Defining the number of timestep
run 500000

print "All done"
#-------------------- End ----------------------------------------------------------------

#-----------------------------------------------------------------------------------------
# Note
# compute        peratom all stress/atom NULL
# compute        p all reduce sum c_peratom[1] c_peratom[2] c_peratom[3]
# variable       press equal -(c_p[1]+c_p[2]+c_p[3])/(3*vol)
# thermo_style   custom step temp etotal press v_press
# metal unit: press = bar = 0.1 MPa, length = Angstrom = 1e-10 m
#-----------------------------------------------------------------------------------------