# 5.2 Excerpts of an input file

# The input file starts by defining the units of the system, the dimensionality (3D), and the
# boundary conditions, as shown in the box below. We choose periodic boundary conditions
# in all three directions. This will allow us to perform the isobaric relaxation later on.

units metal
dimension 3
boundary p p p
atom_style atomic


#---Create simulation box---
lattice fcc ${latconst_a}
region simbox block -5 5 -5 5 -0.01 ${height}
create_box 2 simbox


#---Defining nanowire ---
region nprism1 prism 0 ${rad_p} -0.01 ${SiC_yp} -0.01 ${height} ${SiC_xn} 0 0
region nprism2 prism ${rad_n} 0 -0.01 ${SiC_yp} -0.01 ${height} ${SiC_xp} 0 0
region nprism3 prism ${SiC_xn} ${SiC_xp} ${SiC_yn} -0.01 -0.01 ${height} ${SiC_xn} 0 0
region nprism4 prism ${SiC_xn} ${SiC_xp} ${SiC_yn} -0.01 -0.01 ${height} ${SiC_xp} 0 0
region nanowire union 4 nprism1 nprism2 nprism3 nprism4


#---Creating the zb lattice (normalized z[111]-direction)
lattice custom ${latconst_a} &
  orient x 1 1 -2 orient y -1 1 0 orient z 1 1 1 &
  a1 1.0 0.0 0.0 &
  a2 0.0 1.0 0.0 &
  a3 0.0 0.0 1.0 &
  basis 0.0 0.0 0.0 basis 0.0 0.5 0.5 &
  basis 0.5 0.0 0.5 basis 0.5 0.5 0.0 &
  basis 0.25 0.25 0.25 basis 0.25 0.75 0.75 &
  basis 0.75 0.25 0.75 basis 0.75 0.75 0.25


#---Adding atoms---
create_atoms 2 region nanowire &
  basis 1 1 basis 2 1 basis 3 1 basis 4 1 &
  basis 5 2 basis 6 2 basis 7 2 basis 7 2

group nanowire region nanowire


#---Defining Atomic potential---
mass 1 28.085
mass 2 12.011

group Si type 1
group C type 2

pair_style meam/c
pair_coeff * * library.meam Si C SiC.meam Si C


#---Initial velocities
velocity all create 0.01 511124 rot yes mom yes


#---Bar stat---
timestep 0.0001
fix RELAXBOX all box/relax iso 0.0
min_style sd
minimize 1e-25 1e-25 50000 100000
unfix RELAXBOX


#---Timeintegration---
fix NVT all nvt temp 0.01 0.01 0.1


#----Start loading, strain rate 1e8 (1e-4)---
fix LOAD nanowire deform 1 z erate 0.0001 units box


#----MD run (Loading)-------
timestep 0.001
run 3000000

