# Test of MEAM potential for Fe3Cu system

units		metal
boundary	p p p

atom_style	atomic

read_data	Fe3Cu_position.meam

pair_style	meam
pair_coeff	* * library2.meam Fe Cu Fe3Cu_param.meam Fe Cu

neighbor	0.3 bin
neigh_modify	delay 10

fix		1 all nve
thermo		10
timestep	0.001

dump		1 all atom 10 dump_Fe3Cu.meam

#run		100
run             0

