# Input file for Grain Boundary Transition Activation Energy in Cu with given applied pressure

# When initial and final states are known, from LAMMPS or ART, the nudged elastic band method is 
# used to find the activation energy. It should be noted that if the atomic configurations are coming from art, 
# they must first be sorted such that the atomic numbering in the initial and final states match. 
# this is complete are first relaxed under a given pressure state using the fix box/relax and 
# the conjugant gradient method. These sorted and relaxed states are then 
# used as inputs to the neb.in file as follows:

# need structure files
# p_out.atom.initial
# p_out.atom.final

# --------------- INITIALIZATION ------------------
clear
units metal
dimension 3
boundary p p p

# ------------------ ATOM DEFINITION -------------------
atom_style atomic
atom_modify map array sort 0 0.0

read_data p_out.atom.initial

change_box all triclinic

# ------------------------ FORCE FIELDS -----------------------
pair_style eam/alloy
pair_coeff * * Zope-Ti-Al-2003.eam.alloy Ti

neighbor 2.0 bin
neigh_modify delay 10 check yes

#---------------------------Computes----------------------------
compute   csym all centro/atom fcc
compute    eng all pe/atom
compute eatoms all reduce sum c_eng

#-----------------------Pressure------------------------------
#external pressure in bar
variable pres equal 500

variable Sx equal ${pres}/2
variable Sy equal ${pres}/2
variable Sz equal 0
variable Syz equal 0
variable Sxz equal 0
variable Sxy equal -${pres}/2

#Apply pressure
fix fxp1 all box/relax x ${Sx}
fix fxp2 all box/relax y ${Sy}
fix fxp3 all box/relax z ${Sz}
fix fxp4 all box/relax yz ${Syz}
fix fxp5 all box/relax xz ${Sxz}
fix fxp6 all box/relax xy ${Sxy}

#----------------------Energy Minimization-------------------------
reset_timestep 0
thermo 1000
thermo_style custom step pe lx ly lz press pxx pyy pzz c_eatoms
dump 1 all cfg 100 cfg/dump.initial.*.cfg mass type xs ys zs id c_csym c_eng #vx vy vz fx fy fz
dump_modify 1 element Ti
min_style cg
minimize 1e-15 1e-15 5000 5000
undump 1
unfix fxp1
unfix fxp2
unfix fxp3
unfix fxp4
unfix fxp5
unfix fxp6

#counts the total number of atoms in the cell
variable N  equal count(all)
variable No equal $N

#variable Ei equal "c_eatoms" computes the initial energy of the
#cell system before the vacancy
variable E  equal "c_eatoms"
variable Ei equal $E
print "Initial Energy energy = ${Ei}"

#-----------------------NEB-----------------------
reset_timestep 0
timestep 0.01
thermo 1000
variable A uloop 24 pad #run this job with 16 processors
dump 3 all cfg 10000 cfg/dump.NEB.${A}.*.cfg mass type xs ys zs c_csym c_eng #vx vy vz fx fy fz
dump_modify 3 element Ti
fix fx1 all neb 5
min_style quickmin
neb 1.0e-15 5.0e-9 300000 300000 10000 each p_out.atom.final

#--------------------Compute & Show-----------------
variable E equal "c_eatoms"
print "Final energy = ${E}"
variable N equal count(all)
variable EAtot equal $E/$N
print "Total Energy Per Atom = ${EAtot}"
