#------------------------------------------------------------------------------------------
# APPENDIX 1: Explanation of LAMMPS Script
#------------------------------------------------------------------------------------------
# LAMMPS 64-bit 22Dec2022-MSMPI
# 200 Ni-Cu 5-5--------------------- INITIALIZATION ----------------------------
units metal
dimension 3
boundary p p p
atom_style atomic

# ----------------------- ATOM DEFINITION ----------------------------
lattice fcc 3.52
region upper block 0 28 0 28 0 14
lattice fcc 3.61
region lower block 0 28 0 28 14 28
region whole union 2 upper lower

create_box 2 whole
lattice fcc 3.52 orient x 1 0 0 orient y 0 1 0 orient z 0 0 1
create_atoms 1 region upper
lattice fcc 3.61 origin 0 0 .247 orient x 1 0 0 orient y 0 1 0 orient z 0 0 1
create_atoms 2 region lower

# ------------------------ FORCE FIELDS ------------------------------
pair_style eam/alloy
pair_coeff * * CuNi_v2.eam.alloy Ni Cu

# ------------------------- SETTINGS ---------------------------------
compute csym all centro/atom fcc
compute peratom all pe/atom 

# EQUILIBRATION
reset_timestep 0
timestep 0.001
velocity all create 1 12345 mom yes rot no
fix 1 all npt temp 1 1 1 iso 0 0 1 drag 1 

# Set thermo output
thermo 300
thermo_style custom step lx ly lz press pxx pyy pzz pe temp

# Run for at least 10 picosecond (assuming 1 fs timestep)
run 25000
unfix 1

# Store final cell length for strain calculations
variable tmp equal "lx"
variable L0 equal ${tmp}
Print "Initial Length, L0: ${L0}"

################ DEFORMATION###############
reset_timestep 0
fix 1 all npt temp 1 1 1 y 0 0 1 z 0 0 1 drag 1
variable srate equal 1e10
variable srate1 equal "v_srate / 1.0e12"
fix 2 all deform 1 x erate ${srate1} units box remap x

# Output strain and stress info to file
# for units metal, pressure is in [bars] = 1/10000 [GPa] p2, p3, p4 are in GPa
variable strain equal "(lx - v_L0)/v_L0"
variable p1 equal "v_strain"
variable p2 equal "-pxx/10000"
variable p3 equal "-pyy/10000"
variable p4 equal "-pzz/10000"
fix def1 all print 100 "${p1} ${p2} ${p3} ${p4}" file Multi_5Ni5Cu200bi_1K.def1.txt screen no

# Use cfg for Ovito
dump 1 all cfg 250 cfg/dump.tensile200_5Ni5CuMulti1K_*.cfg mass type xs ys zs c_csym c_peratom fx fy fz
dump_modify 1 element Ni Cu

# Display thermo
thermo 300
thermo_style custom step v_strain temp v_p2 v_p3 v_p4 ke pe press
run 20000
# SIMULATION DONE
clear
#------------------------------------------------------------------------------------------