#5.3 Tensile tests at desierd T K :
# 5.3.1 Program for perfect crystal
# LAMMPS 64-bit 22Dec2022-MSMPI
clear
#-------------------- Environment Settings -----------------------------------------------
variable  Tdesird equal  700.0 # Desired Temperature [K]

variable   Nsteps equal   7000 # Number of simulation cycles
variable DumpFreq equal    100 # For print out

variable    dt_ps equal  0.001 # 0.001 [ps] = 1 [fs]

variable  es_rate equal    0.1 # engineering strain rate (1/time units)
# Note: es_rate/dt_ps = 0.1 / (1e-15) = 1.0e13 [1/s]
# L(t) = L(0)*(1 + es_rate*dt*step)
# strain [%] = es_rate*dt*Nstep*100 [%] = 0.1 * 0.001 * 7000 * 100 = 70 [%]

#-------------------- Initialization -----------------------------------------------------
echo both   # finds fault and displays error messages
units metal # determines units of all quantities used in the program
dimension 3
boundary p p p

#-------------------- Atom & Lattice description ----------------------------------------
atom_style atomic

region box block 0 20 0 50 0 40 units box # creates a box of dimension 20x50x40
create_box 1 box

lattice fcc 3.61                          # lattice parameter for Cu crystal
region Cu block 0 20 0 50 0 40 units box  # creates Cu atoms in the given box
create_atoms 1 region Cu units box

#-------------------- Force field --------------------------------------------------------
pair_style eam/alloy                  # interaction between two atoms Embedded Atomic Method, calculates pair wise interaction
pair_coeff * * Cu_zhou04.eam.alloy Cu # energy between two atoms is taken from the given potential file

#-------------------- Energy Minimization ------------------------------------------------
# 0 [K], structure optimization
# brings atoms to minimum energy state
minimize 1.0e-9 1.0e-6 1000 1000

#-------------------- Settings -----------------------------------------------------------
reset_timestep 0

# 2 [fs], sets the timestep for subsequent simulations
timestep ${dt_ps}

#-------------------- Run the equilibrium simulation (NPT) at desired temperature [K] -----
# fixes temperature for energy minimization of atoms
fix fe1 all npt temp ${Tdesird} ${Tdesird} $(100*dt) iso 0.0 0.0 $(1000*dt)

run 10000

unfix fe1

#-------------------- Settings -----------------------------------------------------------
reset_timestep 0

compute 1 all stress/atom NULL  # computes the symmetric per-atom stress tensor for each atom in a group.
compute 2 all temp              # computes the temp of a group of atoms
compute 3 all reduce sum c_1[2] # reduces vector quantities of all stress tensors in y-direction and adds all the quantities to a single scalar value
compute kea all ke/atom         # This is related to temperature

variable stress     equal c_3/vol        # assigns a value to the variable name stress
variable stress_GPa equal v_stress/10000 # converts the stress calculated to GPa

compute    csym all centro/atom fcc
compute peratom all pe/atom

variable    tmp equal ly
variable     lo equal ${tmp}
variable strain equal (ly-v_lo)/v_lo

#for units metal, pressure is in 1 [bars] = 100 [kPa] = 0.1 [MPa] = 1x10^-4 [GPa] => p2 is in GPa
variable  p1 equal "-pxx/10000"
variable  p2 equal "-pyy/10000"
variable  p3 equal "-pzz/10000"

variable p12 equal "-pxy/10000"
variable p23 equal "-pyz/10000"
variable p13 equal "-pxz/10000"

variable  fm equal "(v_p1+v_p2+v_p3)/3" # Hydrostatic stress
variable  fv equal "sqrt(((v_p2-v_p3)^2+(v_p3-v_p1)^2+(v_p1-v_p2)^2+6*(v_p12^2+v_p23^2+v_p13^2))/2)" # Von Mises Stress
variable   t equal "v_fm/v_fv"
variable  fd equal (((v_p2-v_fm)*(v_p3-v_fm)*(v_p1-v_fm))-(v_p12)^2*(v_p3-v_fm)-(v_p13)^2*(v_p2-v_fm)-(v_p23)^2*(v_p1-v_fm)+2*v_p12*v_p23*v_p13) # Deviatoric Von Mises stress

# principal stresses
variable  I1 equal "(v_p1+v_p2+v_p3)"
variable  I2 equal "((v_p1)*(v_p2))+((v_p2)*(v_p3))+((v_p1)*(v_p3))-(v_p12)^2-(v_p23)^2-(v_p13)^2"
variable  I3 equal "((v_p1)*(v_p2)*(v_p3))-((v_p1)*((v_p23)^2))-((v_p2)*((v_p13)^2))-((v_p3)*((v_p12)^2))+2*(v_p12)*(v_p23)*(v_p13)"
variable   A equal "(acos(((2*(v_I1)^3)-9*(v_I1)*(v_I2)+27*(v_I3))/(2*((v_I1)^2-(3*(v_I2)))^(3/2))))/3"
variable  s1 equal "((v_I1)/3)+(2/3)*(sqrt((v_I1)^2-(3*(v_I2))))*cos(v_A)" 
variable  s2 equal "((v_I1)/3)+(2/3)*(sqrt((v_I1)^2-(3*(v_I2))))*cos((v_A)+(2*PI)/3)" 
variable  s3 equal "((v_I1)/3)+(2/3)*(sqrt((v_I1)^2-(3*(v_I2))))*cos((v_A)+(4*PI)/3)" 

# computes and prints thermodynamic data after every 100 timesteps
thermo ${DumpFreq}
thermo_style custom step temp vol press pe ke etotal c_2 v_strain v_stress v_stress_GPa v_p2

#---------- output file settings -------------------
fix fo1 all ave/time 1 3 3 c_2 v_strain v_stress v_stress_GPa v_p2 file stress_vs_strain.txt

#---------- output file settings -------------------
dump 2 all cfg ${DumpFreq} cfg/Cu_defect_tensile.*.cfg mass type xs ys zs id type xs ys zs c_csym c_peratom c_kea
dump_modify 2 element Cu
#---------------------------------------------------
#dump 3 all custom ${DumpFreq} stress_peratom* id type x y z c_1[1] c_1[2] c_1[3] c_1[4] c_1[5] c_1[6]
##dumps atom type; x,y,z coordinates; 6 stress tensors computed in 1 to an array of 6 elements
#---------------------------------------------------
#log NVTlog_compress_al.data

velocity all create ${Tdesird} 873847 rot yes mom yes dist gaussian

#-------------------- Run the simulation -------------------------------------------------
# strain rate of 0.01 [1/time units] is applied in y direction
fix 1 all deform 1 y erate ${es_rate} units box # Uniaxial tensile deformation

# all atoms rescaled to new positions while temp and pressure is conserved
fix 2 all npt temp ${Tdesird} ${Tdesird} $(v_Nsteps*dt) x 0 0 $(v_Nsteps*dt) z 0 0 $(v_Nsteps*dt) dilate all # Adiabatic conditions
#fix 2 all npt temp ${Tdesird} ${Tdesird} $(100*dt) x 0 0 $(1000*dt) z 0 0 $(1000*dt) dilate all # Non-adiabatic conditions
# Under non-adiabatic conditions, considering external influences, many parameters must be adjusted to explain the experimental results.

# Resets the temp of atoms to 300 K by rescaling velocities after every 10 steps
fix 3 all temp/rescale 10 ${Tdesird} ${Tdesird} 0.05 1.0

# gives the stress-strain data
fix 4 all print 10 "${strain} ${p2}" file stress_strain_data_Cu_perfect_tensile_50K

fix 5 all print 1 "${strain} ${p2} ${s1} ${s2} ${s3} ${fm} ${fv} ${t} ${fd}" file plot_stress_vs_strain_v3.txt

# calculates the radial distribution function (RDF) and output file
compute 11 all rdf 100
fix 6 all ave/time 100 1 100 c_11[*] file Cu_Tensile.rdf mode vector

# number of iterations is given so as to give 40% strain to the material
run ${Nsteps}

#-------------------- End ----------------------------------------------------------------

#-----------------------------------------------------------------------------------------
# Note: stress_strain_data_Cu_perfect_tensile_50K (output file)
# Data: strain, p2 (stress of y direction)
#-----------------------------------------------------------------------------------------
# Note: Cu_defect_tensile_von.txt (output file)
# Data: strain, p2 (stress of y direction),  principal stresses (s1, s2 and s3),
# fm (Hydrostatic stress), fv (Von Mises Stress), t (fm/fv), fd (Deviatoric Von Mises stress)
#-----------------------------------------------------------------------------------------

#-----------------------------------------------------------------------------------------
# Note
# compute        peratom all stress/atom NULL
# compute        p all reduce sum c_peratom[1] c_peratom[2] c_peratom[3]
# variable       press equal -(c_p[1]+c_p[2]+c_p[3])/(3*vol)
# thermo_style   custom step temp etotal press v_press
# metal unit: press = bar = 0.1 MPa, length = Angstrom = 1e-10 m
#-----------------------------------------------------------------------------------------