#-----------------------------------------------------------------------------------------
### Created by Eric N. Hahn  ###
### ericnhahn@gmail.com ###
### Simple Carbon Foam  ###
### Version 0.1 ###
#-----------------------------------------------------------------------------------------
### Small changes by STUDENT
#-----------------------------------------------------------------------------------------
# LAMMPS 64-bit 22Dec2022-MSMPI
#-----------------------------------------------------------------------------------------
clear
echo both
#-----------------------------------------------------------------------------------------
units               metal
atom_style          atomic

variable cubelength equal 72
region  box block 0 ${cubelength} 0 ${cubelength} 0 ${cubelength}
create_box 2 box 
create_atoms 1 random 3666 12345 box

pair_style airebo/morse 3.0 1 1
pair_coeff * * CH.airebo-m C H

mass 1 12.0107 # C
mass 2 1.00784 # H

# initial temperature 100 K
velocity all create 100.0 12345

compute 3 all pe/atom

fix 2 all balance 1000 1.05 shift xyz 10 1.05

minimize 1e-10 1e-10 5000 5000

reset_timestep 0

dump eve all custom 250 dump/dump.Cfoam_sythesis_999K.* id type x y z vx vy vz c_3
dump        d1 all cfg 5 cfg/dump.Cfoam_sythesis_999K.*.cfg mass type xs ys zs id type vx vy vz fx fy fz c_3
dump_modify d1 element Cu H

# NVE, 999 K
fix 1 all nve
fix temp all langevin 999 999 5 12345

timestep 0.001 # 1 [fs]

thermo 100
thermo_style custom step temp pe etotal press vol

run 1000000 # 1 [ns]

write_data data.Cfoam_sythesis_999K

print "Job's done" 
#-----------------------------------------------------------------------------------------