&inputpp
    prefix  = 'out/b2_Al_Li'
    outdir = './'
    filplot = 'all_electron_density'
    plot_num= 21
/
&plot
nfile = 1
iflag = 3
output_format = 6
fileout = 'all_electron_density.cube'
/
