&inputpp
    prefix  = 'out/b2_Al_H'
    outdir = './'
    filplot = 'valence_density'
    plot_num= 0
/
&plot
nfile = 1
iflag = 3
output_format = 6
fileout = 'valence_density.cube'
/
