#LAMMPS Input file
# Title
clear

# ----- condition settings -----

variable    temp index 298.0 # K

variable    pres index 100.0 # 10.0 MPa (bar units)


# -----other settings -----
variable        fs    index 0.0010 # 1.0 fs
variable        ps    index 20 # 20 ps
variable        nstep equal ${ps}/${fs}
variable        tdamp equal ${fs}*100
variable        pdamp equal ${fs}*1000

# ----- Structure settings -----
units           metal
atom_style      atomic
dimension       3
boundary        p p p
read_data       data_5x4x4.in
replicate       1 1 1
timestep        ${fs}

# ----- Potential settings (MEAM)-----
# -----HEA (Co-Ni-Cr-Fe-Mn)
pair_style      meam/c
pair_coeff      * * ../potentials/meam/CoNiCrFeMn.HEA.library.meam Co Ni Cr Fe Mn ../potentials/meam/CoNiCrFeMn.HEA.meam Co Ni Cr Fe Mn
# -----(Al-Si-Mg-Cu-Fe)
#pair_style      meam/c
#pair_coeff      * * ../potentials/meam/Jelinek_2012_meam AlS SiS MgS CuS FeS ../potentials/meam/Jelinek_2012_meam.alsimgcufe AlS SiS MgS CuS FeS

# ----- Potential settings (EAM)-----
# -----(Fe-Ni-Cr-Co-Al): https://doi.org/10.1557/jmr.2020.294
#pair_style      eam/alloy
#pair_coeff      * * ../potentials/eam/FeNiCrCoAl-heaweight.setfl Fe Ni Cr Co Al
# -----(Fe-Ni-Cr-Co-Cu): https://doi.org/10.1557/jmr.2018.245
#pair_style      eam/alloy
#pair_coeff      * * ../potentials/eam/FeNiCrCoCu-heafixed.setfl Fe Ni Cr Co Cu
# -----(Ag-Au-Cu-Ni-Pd-Pt): https://doi.org/10.1557/jmr.1989.0102
#pair_style      eam
#pair_coeff      1 * ../potentials/eam/DYNAMO/cuu6.txt
#pair_coeff      2 * ../potentials/eam/DYNAMO/agu6.txt
#pair_coeff      3 * ../potentials/eam/DYNAMO/auu6.txt
#pair_coeff      4 * ../potentials/eam/DYNAMO/niu6.txt
#pair_coeff      5 * ../potentials/eam/DYNAMO/ptu6.txt

# https://doi.org/10.1103/physrevb.69.144113
# -----(Cr-Mn-Fe-Co-Ni), Cr and Mn are low accuracy
#pair_style      eam/alloy
#pair_coeff      * * ../potentials/eam/Zhou04/CrMnFeCoNi_Zhou04.eam.alloy Cr Mn Fe Co Ni
# -----(Cr-Fe-Co-Ni-Cu), Cr is low accuracy
#pair_style      eam/alloy
#pair_coeff      * * ../potentials/eam/Zhou04/CrFeCoNiCu_Zhou04.eam.alloy Cr Fe Co Ni Cu
# -----(Al-Cr-Fe-Co-Ni), Cr is low accuracy
#pair_style      eam/alloy
#pair_coeff      * * ../potentials/eam/Zhou04/AlCrFeCoNi_Zhou04.eam.alloy Al Cr Fe Co Ni
# -----(Al-Ti-Fe-Co-Ni)
#pair_style      eam/alloy
#pair_coeff      * * ../potentials/eam/Zhou04/AlTiFeCoNi_Zhou04.eam.alloy Al Ti Fe Co Ni
# -----(Al-Ti-V-Cr-Nb), V and Nb are low accuracy
#pair_style      eam/alloy
#pair_coeff      * * ../potentials/eam/Zhou04/AlTiVCrNb_Zhou04.eam.alloy Al Ti V Cr Nb
# -----(Au-Cu-Pt-Pd-Ni)
#pair_style      eam/alloy
#pair_coeff      * * ../potentials/eam/Zhou04/AuCuPtPdNi_Zhou04.eam.alloy Au Cu Pt Pd Ni
# -----(Ti-Zr-Hf-Nb-Ta), Hf and Nb are low accuracy
#pair_style      eam/alloy
#pair_coeff      * * ../potentials/eam/Zhou04/TiZrHfNbTa_Zhou04.eam.alloy Ti Zr Hf Nb Ta
# -----(V-Nb-Mo-Fe-Ni), V and Nb are low accuracy
#pair_style      eam/alloy
#pair_coeff      * * ../potentials/eam/Zhou04/VNbMoFeNi_Zhou04.eam.alloy V Nb Mo Fe Ni

# ----- Potential settings (EIM)-----
#pair_style      eim
#pair_coeff      * * Li Na K Rb Cs F Cl Br Id ../potentials/eim/BrClCsFIKLiNaRb.ffield.eim F K Li Na Rb

# ----- Relax calculation (0 K) -----
thermo_style    custom step etotal temp lx vol press pxx pyy pxy
thermo          10

fix             f1 all box/relax iso 0.0
minimize        1.0e-10 0.0 1000 100000
unfix           f1

# ----- calculate temperature per particle -----
variable kB equal 1.3806504e-23  # Boltzman constant [J/K]
variable eV2J equal 1.602763e-19 # change [eV] to [J] unit
compute ke all ke/atom           # The kinetic energy [eV] of each atom
variable tempatom atom c_ke*${eV2J}*(2/3)/${kB} # ke = (1/2)*m*v^2 = (3/2)*kB*T, T = ke*(2/3)/kB
#
# References
# [1] M. Li et al., Nanomaterials 2019, 9(3), 347; https://doi.org/10.3390/nano9030347
# URL: https://www.mdpi.com/2079-4991/9/3/347
# Supplementary Materials: https://www.mdpi.com/2079-4991/9/3/347/s1.
# ----- ----------------------------------------
fix ave_tempatom all ave/atom 1 100 100 v_tempatom # Average calculation for temperature of each atom

# ----- Output setting -----
#dump            d1 all cfg 100 cfg/run.*.cfg mass type xs ys zs id type # old version (stable)
dump            d1 all cfg 100 cfg/run.*.cfg mass type xs ys zs id type fx fy fz vx vy vz f_ave_tempatom
dump_modify     d1 element Co Ni Cr Fe Mn
#dump_modify     d1 element Al Si Mg Cu Fe  # Al-Si-Mg-Cu-Fe

# ----- Check equilibriation setting -----
variable        energy equal etotal
variable        temperature equal temp
fix             fout1 all ave/time 1 100 100 v_energy v_temperature file out_energy.txt

# ----- Equilibriation -----
velocity        all create 10.0 123456
fix             f1 all npt temp 10.0 ${temp} ${tdamp} iso 0.0 ${pres} ${pdamp}
run             ${nstep} # 20 ps
unfix           f1

# ----- Calculation -----
# fix            f1 all deform 1 x erate 0.001 remap x
fix             f1 all nvt temp ${temp} ${temp} ${tdamp}
run             ${nstep} # 20 ps
unfix           f1

# ----- Radial Distribution Function -----
#comm_modify     cutoff 14
compute         distribution all rdf 240
fix             f1 all ave/time 1 1000 3000 c_distribution[*] file out_rdf.txt mode vector

# ----- Mean Square Displacement -----
group           Co type 1
compute         Comsd Co msd
fix             f2 all ave/time 1 1 5 c_Comsd[*] file out_Co_msd.txt
# -----
group           Ni type 2
compute         Nimsd Ni msd
fix             f3 all ave/time 1 1 5 c_Nimsd[*] file out_Ni_msd.txt
# -----
group           Cr type 3
compute         Crmsd Cr msd
fix             f4 all ave/time 1 1 5 c_Crmsd[*] file out_Cr_msd.txt
# -----
group           Fe type 4
compute         Femsd Fe msd
fix             f5 all ave/time 1 1 5 c_Femsd[*] file out_Fe_msd.txt
# -----
group           Mn type 5
compute         Mnmsd Mn msd
fix             f6 all ave/time 1 1 5 c_Mnmsd[*] file out_Mn_msd.txt
# -----
compute         allmsd all msd
fix             f7 all ave/time 1 1 5 c_allmsd[*] file out_all_msd.txt

fix             f8 all nvt temp ${temp} ${temp} ${tdamp}
run             3000

# ----- Output restart data -----
write_data data.in.restart