opti molmec conp phon eckart
#switch rfo gnorm 0.05
dump ssy_dimer_c_2_prime.res
cartesian
O5   core    10.8020000000    9.7880000000   15.7230000000   -0.68180
S5   core    10.7910000000    9.9740000000   14.1770000000    1.14400
O5   core     9.4920000000   10.7440000000   13.8180000000   -0.68180
O5   core    10.7190000000    8.5590000000   13.5450000000   -0.68180
C5   core    12.2830000000   10.8880000000   13.6350000000   -0.07340
C5   core    12.2460000000   12.3110000000   13.6410000000   -0.10090
H5   core    11.3040000000   12.8320000000   13.8200000000    0.14460
C5   core    13.4540000000   13.0240000000   13.4360000000   -0.16780
H5   core    13.4620000000   14.1180000000   13.4620000000    0.11690
C5   core    14.6830000000   12.3080000000   13.2440000000    0.03330
C5   core    14.6900000000   10.8760000000   13.1680000000   -0.16780
H5   core    15.6280000000   10.3510000000   12.9820000000    0.11690
C5   core    13.4810000000   10.1630000000   13.3690000000   -0.10090
H5   core    13.4600000000    9.0720000000   13.3350000000    0.14460
N6   core    15.8720000000   13.0820000000   13.1710000000   -0.09400
H6   core    15.8540000000   14.1280000000   13.2370000000    0.26060
N5   core    17.0920000000   12.5070000000   13.1680000000   -0.09850
C6   core    18.1770000000   13.3220000000   13.2370000000   -0.02040
C5   core    19.5120000000   12.6520000000   13.2750000000   -0.00230
C5   core    19.6590000000   11.2230000000   13.1730000000   -0.22620
H5   core    18.7710000000   10.6100000000   13.0080000000    0.13940
C5   core    20.9270000000   10.6120000000   13.3050000000   -0.05130
H5   core    21.0390000000    9.5270000000   13.2410000000    0.14400
C5   core    22.0720000000   11.4360000000   13.5410000000   -0.11590
C5   core    21.9850000000   12.8430000000   13.5910000000   -0.09350
H5   core    22.8860000000   13.4400000000   13.7560000000    0.12780
C5   core    20.7000000000   13.4710000000   13.4490000000    0.03470
C6   core    20.5800000000   14.9380000000   13.5080000000   -0.11610
H5   core    21.5040000000   15.5170000000   13.6100000000    0.15660
C7   core    19.3590000000   15.5850000000   13.4440000000   -0.36250
H5   core    19.2760000000   16.6740000000   13.4860000000    0.14320
C8   core    18.0870000000   14.8310000000   13.3370000000    0.60810
O5   core    16.9620000000   15.4360000000   13.3410000000   -0.59680
S5   core    23.6790000000   10.6360000000   13.9040000000    1.16590
O5   core    23.6460000000    9.9640000000   15.3080000000   -0.68230
O5   core    24.8230000000   11.6860000000   13.9190000000   -0.68230
O5   core    24.0220000000    9.5380000000   12.8690000000   -0.68230
O5   core    24.8450000000   10.3480000000    6.9030000000   -0.68180
S5   core    24.7900000000   10.1810000000    8.4510000000    1.14400
O5   core    26.0190000000   10.9270000000    9.0380000000   -0.68180
O5   core    24.9370000000    8.6660000000    8.7550000000   -0.68180
C5   core    23.2190000000   10.8560000000    9.1020000000   -0.07340
C5   core    23.1910000000   12.1980000000    9.5710000000   -0.10090
H5   core    24.1210000000   12.7580000000    9.6810000000    0.14460
C5   core    21.9360000000   12.7850000000    9.8740000000   -0.16780
H5   core    21.8800000000   13.8210000000   10.2210000000    0.11690
C5   core    20.7310000000   12.0300000000    9.6910000000    0.03330
C5   core    20.7830000000   10.6570000000    9.2790000000   -0.16780
H5   core    19.8560000000   10.0910000000    9.1690000000    0.11690
C5   core    22.0360000000   10.0700000000    8.9770000000   -0.10090
H5   core    22.1050000000    9.0350000000    8.6370000000    0.14460
N6   core    19.5010000000   12.7130000000    9.8970000000   -0.09400
H6   core    19.4660000000   13.7390000000   10.1070000000    0.26060
N5   core    18.3170000000   12.0990000000    9.7230000000   -0.09850
C6   core    17.1830000000   12.8380000000    9.8380000000   -0.02040
C5   core    15.8900000000   12.1150000000    9.6390000000   -0.00230
C5   core    15.8300000000   10.6980000000    9.3910000000   -0.22620
H5   core    16.7580000000   10.1240000000    9.3780000000    0.13940
C5   core    14.5970000000   10.0530000000    9.1450000000   -0.05130
H5   core    14.5490000000    8.9800000000    8.9490000000    0.14400
C5   core    13.3950000000   10.8280000000    9.1540000000   -0.11590
C5   core    13.3970000000   12.2100000000    9.4440000000   -0.09350
H5   core    12.4560000000   12.7660000000    9.4720000000    0.12780
C5   core    14.6490000000   12.8720000000    9.6900000000    0.03470
C6   core    14.6830000000   14.3150000000    9.9800000000   -0.11610
H5   core    13.7250000000   14.8430000000   10.0330000000    0.15660
C7   core    15.8670000000   15.0050000000   10.1850000000   -0.36250
H5   core    15.8860000000   16.0730000000   10.4170000000    0.14320
C8   core    17.1810000000   14.3240000000   10.1120000000    0.60810
O5   core    18.2720000000   14.9710000000   10.2850000000   -0.59680
S5   core    11.8220000000   10.0230000000    8.6640000000    1.16590
O5   core    11.7180000000    9.8950000000    7.1160000000   -0.68230
O5   core    10.6020000000   10.8500000000    9.1460000000   -0.68230
O5   core    11.7170000000    8.5910000000    9.2500000000   -0.68230
Na5  core     8.9810000000    8.8620000000   14.9200000000    1.00000
Na5  core     9.9030000000    9.0410000000    8.0080000000    1.00000
Na5  core    25.6420000000    9.6770000000   14.4710000000    1.00000
Na5  core    26.6970000000    9.3770000000    7.5650000000    1.00000
cutp 10.0 mdf 2.0
element
cova 11 0.01
end

# O5 = o
# S5 = s6
# H5 = ha
# C5 = ca
# N5 = n2
# N6 = nh
# H6 = hn
# C6 = cc
# C7 = cd
# C8 = c

#  1     C8   1.9080   0.0860
#  7     O5  1.6612   0.2100
#  1    C7   1.9080   0.0860
#  2    C6   1.9080   0.0860
#  1    N5   1.8240   0.1700
#  1    N6   1.8240   0.1700
# 12    C5   1.9080   0.0860
#  1    H6   0.6000   0.0157
#  9    H5   1.4590   0.0150
#  2    S5   2.0000   0.2500
#no atom types 10: total atoms 37

epsilon kcal
   C8   0.0860  3.81600
   O5   0.2100  3.32240
   C7   0.0860  3.81600
   C6   0.0860  3.81600
   N5   0.1700  3.64800
   N6   0.1700  3.64800
   C5   0.0860  3.81600
   H6   0.0157  1.20000
   H5   0.0150  2.91800
   S5   0.2500  4.00000
# taken from Joung for SPC/E
# values in paper: Na 1.212 0.3526418
#   Na5  0.3526418 2.424
# decided to use values from Aqvist JPC 1990,94,8021 - these are in parm99.dat
   Na5  0.00277 3.736

lennard epsilon geometric 12 6 x13 kcal all 0.5
100.0

coul o14 1/6
  X  X  7.0
#  1 H6 N6 401.2000   1.0140
#  7 C5 H5 344.3000   1.0870
#  2 C5 S5 263.9000   1.7590
#  1   C8 O5648.0000   1.2140
#  1 C6 C7 504.0000   1.3710
#  1 C6 N5 572.5000   1.2923
#  1 C6 H5 347.2000   1.0850
#  6  O5 S5 541.1000   1.4360
#  1  C8 C7 377.4000   1.4620
#  1  C8 C6 377.4000   1.4620
#  2 C5 C6 411.7000   1.4340
# 12 C5 C5 478.4000   1.3870
#  1 C7 H5 347.2000   1.0850
#  1 N5 N6 525.1000   1.3560
#  1 C5 N6 449.0000   1.3640
#nopots 15: total bonds 39

harm bond kcal
H6 N6    802.400   1.0140 
C5 H5    688.600   1.0870 
C5 S5    527.800   1.7590 
  C8 O5  1296.000   1.2140 
C6 C7   1008.000   1.3710 
C6 N5   1145.000   1.2923 
C6 H5    694.400   1.0850 
 O5 S5   1082.200   1.4360 
 C8 C7    754.800   1.4620 
 C8 C6    754.800   1.4620 
C5 C6    823.400   1.4340 
C5 C5    956.800   1.3870 
C7 H5    694.400   1.0850 
N5 N6   1050.200   1.3560 
C5 N6    898.000   1.3640 

#  1   C5 N6 H6  49.0800 116.1300
#  1   C5 C6 C7  68.2300 113.5100
#  1   C5 C6 N5  68.5100 120.7201
#  1    C6 C8 C7  65.7300 112.7900
#  6    C5 S5 O5 42.7800 104.0700
#  1   C5 C6 H5  46.4000 124.0401
#  1     C7 C8 O5 68.9100 125.7101
#  4   C5 C5 C6  65.9900 120.1001
#  2   C5 C5 N6  69.3400 120.1301
# 12   C5 C5 C5  67.1800 119.9701
#  1   H6 N6 N5  50.0800 118.2201
#  1    C8 C6 N5  68.5300 120.8901
#  1   C6 C7 H5  48.3500 122.8901
# 14   C5 C5 H5  48.4600 120.0101
#  1    C8 C7 C6  65.2800 121.3201
#  1   C6 N5 N6  70.3500 118.4701
#  6     O5 S5 O5 46.6600 119.7301
#  1   C7 C6 H5  48.3500 122.8901
#  4   C5 C5 S5  78.6900 120.5401
#  1    C8 C7 H5  46.9900 117.0201
#  1    C8 C6 C5  63.5500 122.9501
#  1     C6 C8 O5 68.9100 125.7101
#  1   C5 N6 N5  67.8200 121.1101
#nopots 23: total angles 64

three bond kcal
N6 C5 H6     98.160 116.1300 
C6 C5 C7    136.460 113.5100 
C6 C5 N5    137.020 120.7201 
 C8 C6 C7   131.460 112.7900 
S5 C5  O5    85.560 104.0700 
C6 C5 H5     92.800 124.0401 
 C8 C7  O5  137.820 125.7101 
C5 C5 C6    131.980 120.1001 
C5 C5 N6    138.680 120.1301 
C5 C5 C5    134.360 119.9701 
N6 H6 N5    100.160 118.2201 
C6  C8 N5   137.060 120.8901 
C7 C6 H5     96.700 122.8901 
C5 C5 H5     96.920 120.0101 
C7  C8 C6   130.560 121.3201 
N5 C6 N6    140.700 118.4701 
S5  O5 O5    93.320 119.7301 
C6 C7 H5     96.700 122.8901 
C5 C5 S5    157.380 120.5401 
C7  C8 H5   93.980 117.0201 
C6  C8 C5   127.100 122.9501 
 C8 C6  O5  137.820 125.7101 
N6 C5 N5    135.640 121.1101 

#  1 H5 C7 C8 O5  2.8750 180.0001   2.0000
#  1 H5 C7 C6 H5   4.0000 180.0001   2.0000
#  1 C6 C7 C8 O5  2.8750 180.0001   2.0000
#  3 H5 C5 C5 H5   3.6250 180.0001   2.0000
#  1 C5 C6 N5 N6   4.1500 180.0001   2.0000
#  2 C5 C5 C5 N6   3.6250 180.0001   2.0000
# 12 C5 C5 S5 O5  1.3000 180.0001   2.0000
#  1 C6 N5 N6 H6   2.8000 180.0001   2.0000
#  1 C8 C7 C6 C5   4.0000 180.0001   2.0000
#  1 N5 C6 C8 O5  2.8750 180.0001   2.0000
# 14 C5 C5 C5 H5   3.6250 180.0001   2.0000
#  1 C5 C6 C8 O5  2.8750 180.0001   2.0000
#  1 C6 C7 C8 C6   2.8750 180.0001   2.0000
#  1 C8 C6 N5 N6   4.1500 180.0001   2.0000
#  4 C5 C5 C5 S5   3.6250 180.0001   2.0000
#  1 C8 C7 C6 H5   4.0000 180.0001   2.0000
#  2 H5 C5 C5 N6   3.6250 180.0001   2.0000
#  1 C6 C5 C5 C6   3.6250 180.0001   2.0000
#  1 C7 C8 C6 N5   2.8750 180.0001   2.0000
#  2 C5 C5 N6 N5   1.0500 180.0001   2.0000
#  1 C6 C8 C7 H5   2.8750 180.0001   2.0000
#  1 C5 C6 C8 C7   2.8750 180.0001   2.0000
#  4 C5 C5 C5 C6   3.6250 180.0001   2.0000
#  1 C5 N6 N5 C6   2.8000 180.0001   2.0000
# 12 C5 C5 C5 C5   3.6250 180.0001   2.0000
#  1 C5 C6 C7 H5   4.0000 180.0001   2.0000
#  2 C5 C5 N6 H6   1.0500 180.0001   2.0000
#  4 H5 C5 C5 S5   3.6250 180.0001   2.0000
#  2 C5 C5 C6 C7   0.7000 180.0001   2.0000
#  2 C5 C5 C6 H5   0.7000 180.0001   2.0000
#  2 C6 C5 C5 H5   3.6250 180.0001   2.0000
#  2 C8 C6 C5 C5   0.7000 180.0001   2.0000
#  2 C5 C5 C6 N5   0.7000 180.0001   2.0000
#nopots 33: total dihedrals 88

torsion bond kcal
H5 C7 C8 O5     2.8750    2.0000  180.0001
H5 C7 C6 H5     4.0000    2.0000  180.0001
C6 C7 C8 O5     2.8750    2.0000  180.0001
H5 C5 C5 H5     3.6250    2.0000  180.0001
C5 C6 N5 N6     4.1500    2.0000  180.0001
C5 C5 C5 N6     3.6250    2.0000  180.0001
C5 C5 S5 O5     1.3000    2.0000  180.0001
C6 N5 N6 H6     2.8000    2.0000  180.0001
C8 C7 C6 C5     4.0000    2.0000  180.0001
N5 C6 C8 O5     2.8750    2.0000  180.0001
C5 C5 C5 H5     3.6250    2.0000  180.0001
C5 C6 C8 O5     2.8750    2.0000  180.0001
C6 C7 C8 C6     2.8750    2.0000  180.0001
C8 C6 N5 N6     4.1500    2.0000  180.0001
C5 C5 C5 S5     3.6250    2.0000  180.0001
C8 C7 C6 H5     4.0000    2.0000  180.0001
H5 C5 C5 N6     3.6250    2.0000  180.0001
C6 C5 C5 C6     3.6250    2.0000  180.0001
C7 C8 C6 N5     2.8750    2.0000  180.0001
C5 C5 N6 N5     1.0500    2.0000  180.0001
C6 C8 C7 H5     2.8750    2.0000  180.0001
C5 C6 C8 C7     2.8750    2.0000  180.0001
C5 C5 C5 C6     3.6250    2.0000  180.0001
C5 N6 N5 C6     2.8000    2.0000  180.0001
C5 C5 C5 C5     3.6250    2.0000  180.0001
C5 C6 C7 H5     4.0000    2.0000  180.0001
C5 C5 N6 H6     1.0500    2.0000  180.0001
H5 C5 C5 S5     3.6250    2.0000  180.0001
C5 C5 C6 C7     0.7000    2.0000  180.0001
C5 C5 C6 H5     0.7000    2.0000  180.0001
C6 C5 C5 H5     3.6250    2.0000  180.0001
C8 C6 C5 C5     0.7000    2.0000  180.0001
C5 C5 C6 N5     0.7000    2.0000  180.0001

#  1 C5 C7 C6 H5   1.1000 180.0001   2.0000
#  1 C6 C7 C8 O5  10.5000 180.0001   2.0000
#  1 C5 H6 N6 N5   1.1000 180.0001   2.0000
#  1 C8 C5 C6 N5   1.1000 180.0001   2.0000
#  1 C5 C5 C5 N6   1.1000 180.0001   2.0000
#  1 C8 C6 C7 H5   1.1000 180.0001   2.0000
#  7 C5 C5 C5 H5   1.1000 180.0001   2.0000
#  2 C5 C5 C5 S5   1.1000 180.0001   2.0000
#  2 C5 C5 C5 C6   1.1000 180.0001   2.0000
#nopots 9: total impropers 17

torsion improper kcal
C5 C6 C7 H5     1.1000    2.0000  180.0001
C6 C8 C7 O5    10.5000    2.0000  180.0001
C5 N6 H6 N5     1.1000    2.0000  180.0001
C8 C6 C5 N5     1.1000    2.0000  180.0001
C5 C5 C5 N6     0.5500    2.0000  180.0001
C8 C7 C6 H5     1.1000    2.0000  180.0001
C5 C5 C5 H5     0.5500    2.0000  180.0001
C5 C5 C5 S5     0.5500    2.0000  180.0001
C5 C5 C5 C6     0.5500    2.0000  180.0001
harmonic inter
O5    core Na5   core  2.00000      2.40000      0.00000      0.000  5.000

