# 
# Keywords:
# 
opti molmec conp phon eckart lower  rfo
# 
# Options:
# 
cartesian region  1   
O5    core 21.085429 4.5943957 12.670280 -0.6818000 1.00000 0.00000             
S5    core 21.672837 5.2725390 13.757194 1.14400000 1.00000 0.00000             
O5    core 23.103013 4.9910386 13.718262 -0.6818000 1.00000 0.00000             
O5    core 21.185879 4.5468787 14.891396 -0.6818000 1.00000 0.00000             
C5    core 21.247869 6.9857273 13.840001 -0.0734000 1.00000 0.00000             
C5    core 22.222997 7.9827016 13.905201 -0.1009000 1.00000 0.00000             
H5    core 23.307514 7.7250097 13.933243 0.14460000 1.00000 0.00000             
C5    core 21.853533 9.3261454 13.943669 -0.1678000 1.00000 0.00000             
H5    core 22.649932 10.101186 13.992066 0.11690000 1.00000 0.00000             
C5    core 20.507894 9.6904889 13.912266 0.03330000 1.00000 0.00000             
C5    core 19.529510 8.6936090 13.854404 -0.1678000 1.00000 0.00000             
H5    core 18.501456 8.9536128 13.829693 0.11690000 1.00000 0.00000             
C5    core 19.899565 7.3495348 13.818453 -0.1009000 1.00000 0.00000             
H5    core 19.169719 6.5753615 13.776086 0.14460000 1.00000 0.00000             
N6    core 20.186338 11.022069 13.910135 -0.0940000 1.00000 0.00000             
H6    core 20.978537 11.686406 13.820891 0.26060000 1.00000 0.00000             
N5    core 18.923333 11.527417 13.966242 -0.0985000 1.00000 0.00000             
C6    core 18.645891 12.802626 13.890501 -0.0204000 1.00000 0.00000             
C5    core 17.247088 13.192269 13.922224 -0.0023000 1.00000 0.00000             
C5    core 16.223416 12.246596 14.098075 -0.2262000 1.00000 0.00000             
H5    core 16.472754 11.182028 14.220885 0.13940000 1.00000 0.00000             
C5    core 14.884136 12.630921 14.085571 -0.0513000 1.00000 0.00000             
H5    core 14.118636 11.864479 14.195545 0.14400000 1.00000 0.00000             
C5    core 14.542620 13.968760 13.902238 -0.1159000 1.00000 0.00000             
C5    core 15.553395 14.915461 13.744637 -0.0935000 1.00000 0.00000             
H5    core 15.288554 15.946582 13.601287 0.12780000 1.00000 0.00000             
C5    core 16.896906 14.538950 13.753812 0.03470000 1.00000 0.00000             
C6    core 17.881083 15.576626 13.572223 -0.1161000 1.00000 0.00000             
H5    core 17.604597 16.610503 13.429413 0.15660000 1.00000 0.00000             
C7    core 19.206490 15.202818 13.582664 -0.3625000 1.00000 0.00000             
H5    core 20.000238 15.935988 13.453316 0.14320000 1.00000 0.00000             
C8    core 19.705885 13.834187 13.735211 0.60810000 1.00000 0.00000             
O5    core 20.903385 13.623104 13.720109 -0.5968000 1.00000 0.00000             
S5    core 12.842537 14.477364 13.829087 1.16589999 1.00000 0.00000             
O5    core 12.429039 14.674901 12.478402 -0.6823000 1.00000 0.00000             
O5    core 12.595529 15.739293 14.434780 -0.6823000 1.00000 0.00000             
O5    core 11.912816 13.528885 14.381954 -0.6823000 1.00000 0.00000             
O5    core 25.073864 9.1977688 12.650132 -0.6818000 1.00000 0.00000             
S5    core 24.838621 9.3777084 11.251513 1.14400000 1.00000 0.00000             
O5    core 26.020545 10.002457 10.782884 -0.6818000 1.00000 0.00000             
O5    core 24.797538 8.0345407 10.716367 -0.6818000 1.00000 0.00000             
C5    core 23.342718 10.299490 10.982908 -0.0734000 1.00000 0.00000             
C5    core 23.364393 11.692143 11.082529 -0.1009000 1.00000 0.00000             
H5    core 24.285757 12.186489 11.296918 0.14460000 1.00000 0.00000             
C5    core 22.192376 12.428037 10.913554 -0.1678000 1.00000 0.00000             
H5    core 22.208739 13.502231 11.010569 0.11690000 1.00000 0.00000             
C5    core 20.985568 11.780286 10.653647 0.03330000 1.00000 0.00000             
C5    core 20.964205 10.386476 10.546153 -0.1678000 1.00000 0.00000             
H5    core 20.007510 9.8580386 10.362079 0.11690000 1.00000 0.00000             
C5    core 22.137284 9.6515065 10.706181 -0.1009000 1.00000 0.00000             
H5    core 22.080573 8.5553862 10.649875 0.14460000 1.00000 0.00000             
N6    core 19.848166 12.529905 10.529025 -0.0940000 1.00000 0.00000             
H6    core 19.942193 13.541263 10.489943 0.26060000 1.00000 0.00000             
N5    core 18.587297 12.021194 10.573198 -0.0985000 1.00000 0.00000             
C6    core 17.497673 12.742141 10.505329 -0.0204000 1.00000 0.00000             
C5    core 16.229991 12.060067 10.688929 -0.0023000 1.00000 0.00000             
C5    core 16.172704 10.683754 10.962990 -0.2262000 1.00000 0.00000             
H5    core 17.055226 10.096517 11.023013 0.13940000 1.00000 0.00000             
C5    core 14.952601 10.052204 11.186952 -0.0513000 1.00000 0.00000             
H5    core 14.891913 9.0032715 11.400324 0.14400000 1.00000 0.00000             
C5    core 13.766556 10.779016 11.136166 -0.1159000 1.00000 0.00000             
C5    core 13.813653 12.142937 10.849493 -0.0935000 1.00000 0.00000             
H5    core 12.873147 12.737401 10.805957 0.12780000 1.00000 0.00000             
C5    core 15.033400 12.787608 10.632953 0.03470000 1.00000 0.00000             
C6    core 15.006087 14.208283 10.385817 -0.1161000 1.00000 0.00000             
H5    core 14.067603 14.785785 10.354518 0.15660000 1.00000 0.00000             
C7    core 16.215581 14.850198 10.226693 -0.3625000 1.00000 0.00000             
H5    core 16.264592 15.931887 10.059663 0.14320000 1.00000 0.00000             
C8    core 17.533896 14.209673 10.275935 0.60810000 1.00000 0.00000             
O5    core 18.542542 14.877298 10.123270 -0.5968000 1.00000 0.00000             
S5    core 12.257801 9.9517229 11.486277 1.16589999 1.00000 0.00000             
O5    core 12.201114 9.4744161 12.815528 -0.6823000 1.00000 0.00000             
O5    core 11.044159 10.738877 11.281822 -0.6823000 1.00000 0.00000             
O5    core 12.088740 8.7617709 10.709333 -0.6823000 1.00000 0.00000             
Na5   core 22.173379 2.7472839 13.680895 1.00000000 1.00000 0.00000             
Na5   core 10.126463 8.6206546 12.063549 1.00000000 1.00000 0.00000             
Na5   core 10.399710 15.237031 13.587327 1.00000000 1.00000 0.00000             
Na5   core 26.953686 8.0236752 11.793005 1.00000000 1.00000 0.00000             
lenn epsilon geometric 12  6 x13  0.5000
C8    core C8    core  0.000 99.0
lenn epsilon geometric 12  6 x13  0.5000
C8    core O5    core  0.000 99.0
lenn epsilon geometric 12  6 x13  0.5000
O5    core O5    core  0.000 99.0
lenn epsilon geometric 12  6 x13  0.5000
C7    core C8    core  0.000 99.0
lenn epsilon geometric 12  6 x13  0.5000
C7    core O5    core  0.000 99.0
lenn epsilon geometric 12  6 x13  0.5000
C7    core C7    core  0.000 99.0
lenn epsilon geometric 12  6 x13  0.5000
C6    core C8    core  0.000 99.0
lenn epsilon geometric 12  6 x13  0.5000
C6    core O5    core  0.000 99.0
lenn epsilon geometric 12  6 x13  0.5000
C6    core C7    core  0.000 99.0
lenn epsilon geometric 12  6 x13  0.5000
C6    core C6    core  0.000 99.0
lenn epsilon geometric 12  6 x13  0.5000
C8    core N5    core  0.000 99.0
lenn epsilon geometric 12  6 x13  0.5000
N5    core O5    core  0.000 99.0
lenn epsilon geometric 12  6 x13  0.5000
C7    core N5    core  0.000 99.0
lenn epsilon geometric 12  6 x13  0.5000
C6    core N5    core  0.000 99.0
lenn epsilon geometric 12  6 x13  0.5000
N5    core N5    core  0.000 99.0
lenn epsilon geometric 12  6 x13  0.5000
C8    core N6    core  0.000 99.0
lenn epsilon geometric 12  6 x13  0.5000
N6    core O5    core  0.000 99.0
lenn epsilon geometric 12  6 x13  0.5000
C7    core N6    core  0.000 99.0
lenn epsilon geometric 12  6 x13  0.5000
C6    core N6    core  0.000 99.0
lenn epsilon geometric 12  6 x13  0.5000
N5    core N6    core  0.000 99.0
lenn epsilon geometric 12  6 x13  0.5000
N6    core N6    core  0.000 99.0
lenn epsilon geometric 12  6 x13  0.5000
C5    core C8    core  0.000 99.0
lenn epsilon geometric 12  6 x13  0.5000
C5    core O5    core  0.000 99.0
lenn epsilon geometric 12  6 x13  0.5000
C5    core C7    core  0.000 99.0
lenn epsilon geometric 12  6 x13  0.5000
C5    core C6    core  0.000 99.0
lenn epsilon geometric 12  6 x13  0.5000
C5    core N5    core  0.000 99.0
lenn epsilon geometric 12  6 x13  0.5000
C5    core N6    core  0.000 99.0
lenn epsilon geometric 12  6 x13  0.5000
C5    core C5    core  0.000 99.0
lenn epsilon geometric 12  6 x13  0.5000
H6    core C8    core  0.000 99.0
lenn epsilon geometric 12  6 x13  0.5000
H6    core O5    core  0.000 99.0
lenn epsilon geometric 12  6 x13  0.5000
H6    core C7    core  0.000 99.0
lenn epsilon geometric 12  6 x13  0.5000
H6    core C6    core  0.000 99.0
lenn epsilon geometric 12  6 x13  0.5000
H6    core N5    core  0.000 99.0
lenn epsilon geometric 12  6 x13  0.5000
H6    core N6    core  0.000 99.0
lenn epsilon geometric 12  6 x13  0.5000
H6    core C5    core  0.000 99.0
lenn epsilon geometric 12  6 x13  0.5000
H6    core H6    core  0.000 99.0
lenn epsilon geometric 12  6 x13  0.5000
H5    core C8    core  0.000 99.0
lenn epsilon geometric 12  6 x13  0.5000
H5    core O5    core  0.000 99.0
lenn epsilon geometric 12  6 x13  0.5000
H5    core C7    core  0.000 99.0
lenn epsilon geometric 12  6 x13  0.5000
H5    core C6    core  0.000 99.0
lenn epsilon geometric 12  6 x13  0.5000
H5    core N5    core  0.000 99.0
lenn epsilon geometric 12  6 x13  0.5000
H5    core N6    core  0.000 99.0
lenn epsilon geometric 12  6 x13  0.5000
H5    core C5    core  0.000 99.0
lenn epsilon geometric 12  6 x13  0.5000
H5    core H6    core  0.000 99.0
lenn epsilon geometric 12  6 x13  0.5000
H5    core H5    core  0.000 99.0
lenn epsilon geometric 12  6 x13  0.5000
C8    core S5    core  0.000 99.0
lenn epsilon geometric 12  6 x13  0.5000
O5    core S5    core  0.000 99.0
lenn epsilon geometric 12  6 x13  0.5000
C7    core S5    core  0.000 99.0
lenn epsilon geometric 12  6 x13  0.5000
C6    core S5    core  0.000 99.0
lenn epsilon geometric 12  6 x13  0.5000
N5    core S5    core  0.000 99.0
lenn epsilon geometric 12  6 x13  0.5000
N6    core S5    core  0.000 99.0
lenn epsilon geometric 12  6 x13  0.5000
C5    core S5    core  0.000 99.0
lenn epsilon geometric 12  6 x13  0.5000
H6    core S5    core  0.000 99.0
lenn epsilon geometric 12  6 x13  0.5000
H5    core S5    core  0.000 99.0
lenn epsilon geometric 12  6 x13  0.5000
S5    core S5    core  0.000 99.0
lenn epsilon geometric 12  6 x13  0.5000
C8    core Na5   core  0.000 99.0
lenn epsilon geometric 12  6 x13  0.5000
O5    core Na5   core  0.000 99.0
lenn epsilon geometric 12  6 x13  0.5000
C7    core Na5   core  0.000 99.0
lenn epsilon geometric 12  6 x13  0.5000
C6    core Na5   core  0.000 99.0
lenn epsilon geometric 12  6 x13  0.5000
N5    core Na5   core  0.000 99.0
lenn epsilon geometric 12  6 x13  0.5000
N6    core Na5   core  0.000 99.0
lenn epsilon geometric 12  6 x13  0.5000
C5    core Na5   core  0.000 99.0
lenn epsilon geometric 12  6 x13  0.5000
H6    core Na5   core  0.000 99.0
lenn epsilon geometric 12  6 x13  0.5000
H5    core Na5   core  0.000 99.0
lenn epsilon geometric 12  6 x13  0.5000
Na5   core S5    core  0.000 99.0
lenn epsilon geometric 12  6 x13  0.5000
Na5   core Na5   core  0.000 99.0
coulomb intra o14  0.1667
X     core X     core  1.0000 0.000  7.000
harmonic intra bond
H6    core N6    core  34.7956      1.01400      0.00000    
harmonic intra bond
H5    core C5    core  29.8607      1.08700      0.00000    
harmonic intra bond
C5    core S5    core  22.8877      1.75900      0.00000    
harmonic intra bond
C8    core O5    core  56.2003      1.21400      0.00000    
harmonic intra bond
C6    core C7    core  43.7113      1.37100      0.00000    
harmonic intra bond
C6    core N5    core  49.6523      1.29230      0.00000    
harmonic intra bond
H5    core C6    core  30.1123      1.08500      0.00000    
harmonic intra bond
O5    core S5    core  46.9290      1.43600      0.00000    
harmonic intra bond
C7    core C8    core  32.7315      1.46200      0.00000    
harmonic intra bond
C6    core C8    core  32.7315      1.46200      0.00000    
harmonic intra bond
C5    core C6    core  35.7063      1.43400      0.00000    
harmonic intra bond
C5    core C5    core  41.4911      1.38700      0.00000    
harmonic intra bond
H5    core C7    core  30.1123      1.08500      0.00000    
harmonic intra bond
N5    core N6    core  45.5413      1.35600      0.00000    
harmonic intra bond
C5    core N6    core  38.9413      1.36400      0.00000    
harmonic inter     
O5    core Na5   core  2.00000      2.40000      0.00000      0.000  5.000
epsilon/sigma
C8    core 0.372934E-02  3.81600    
epsilon/sigma
O5    core 0.910653E-02  3.32240    
epsilon/sigma
C7    core 0.372934E-02  3.81600    
epsilon/sigma
C6    core 0.372934E-02  3.81600    
epsilon/sigma
N5    core 0.737195E-02  3.64800    
epsilon/sigma
N6    core 0.737195E-02  3.64800    
epsilon/sigma
C5    core 0.372934E-02  3.81600    
epsilon/sigma
H6    core 0.680822E-03  1.20000    
epsilon/sigma
H5    core 0.650466E-03  2.91800    
epsilon/sigma
S5    core 0.108411E-01  4.00000    
epsilon/sigma
Na5   core 0.120119E-03  3.73600    
three bond intra regular  
N6    core H6    core C5    core 4.2567     116.13    
three bond intra regular  
C6    core C5    core C7    core 5.9175     113.51    
three bond intra regular  
C6    core C5    core N5    core 5.9418     120.72    
three bond intra regular  
C8    core C6    core C7    core 5.7007     112.79    
three bond intra regular  
S5    core C5    core O5    core 3.7103     104.07    
three bond intra regular  
C6    core H5    core C5    core 4.0242     124.04    
three bond intra regular  
C8    core C7    core O5    core 5.9765     125.71    
three bond intra regular  
C5    core C5    core C6    core 5.7232     120.10    
three bond intra regular  
C5    core C5    core N6    core 6.0138     120.13    
three bond intra regular  
C5    core C5    core C5    core 5.8264     119.97    
three bond intra regular  
N6    core H6    core N5    core 4.3434     118.22    
three bond intra regular  
C6    core C8    core N5    core 5.9435     120.89    
three bond intra regular  
C7    core H5    core C6    core 4.1933     122.89    
three bond intra regular  
C5    core H5    core C5    core 4.2029     120.01    
three bond intra regular  
C7    core C6    core C8    core 5.6617     121.32    
three bond intra regular  
N5    core C6    core N6    core 6.1014     118.47    
three bond intra regular  
S5    core O5    core O5    core 4.0468     119.73    
three bond intra regular  
C6    core H5    core C7    core 4.1933     122.89    
three bond intra regular  
C5    core C5    core S5    core 6.8247     120.54    
three bond intra regular  
C7    core H5    core C8    core 4.0754     117.02    
three bond intra regular  
C6    core C5    core C8    core 5.5116     122.95    
three bond intra regular  
C8    core C6    core O5    core 5.9765     125.71    
three bond intra regular  
N6    core C5    core N5    core 5.8820     121.11    
torsion bond intra
H5    cor C7    cor C8    cor O5    cor  0.12467       2 180.00    
torsion bond intra
H5    cor C7    cor C6    cor H5    cor  0.17346       2 180.00    
torsion bond intra
C6    cor C7    cor C8    cor O5    cor  0.12467       2 180.00    
torsion bond intra
H5    cor C5    cor C5    cor H5    cor  0.15720       2 180.00    
torsion bond intra
C5    cor C6    cor N5    cor N6    cor  0.17996       2 180.00    
torsion bond intra
C5    cor C5    cor C5    cor N6    cor  0.15720       2 180.00    
torsion bond intra
C5    cor C5    cor S5    cor O5    cor  0.56374E-01   2 180.00    
torsion bond intra
C6    cor N5    cor N6    cor H6    cor  0.12142       2 180.00    
torsion bond intra
C8    cor C7    cor C6    cor C5    cor  0.17346       2 180.00    
torsion bond intra
N5    cor C6    cor C8    cor O5    cor  0.12467       2 180.00    
torsion bond intra
C5    cor C5    cor C5    cor H5    cor  0.15720       2 180.00    
torsion bond intra
C5    cor C6    cor C8    cor O5    cor  0.12467       2 180.00    
torsion bond intra
C6    cor C7    cor C8    cor C6    cor  0.12467       2 180.00    
torsion bond intra
C8    cor C6    cor N5    cor N6    cor  0.17996       2 180.00    
torsion bond intra
C5    cor C5    cor C5    cor S5    cor  0.15720       2 180.00    
torsion bond intra
C8    cor C7    cor C6    cor H5    cor  0.17346       2 180.00    
torsion bond intra
H5    cor C5    cor C5    cor N6    cor  0.15720       2 180.00    
torsion bond intra
C6    cor C5    cor C5    cor C6    cor  0.15720       2 180.00    
torsion bond intra
C7    cor C8    cor C6    cor N5    cor  0.12467       2 180.00    
torsion bond intra
C5    cor C5    cor N6    cor N5    cor  0.45533E-01   2 180.00    
torsion bond intra
C6    cor C8    cor C7    cor H5    cor  0.12467       2 180.00    
torsion bond intra
C5    cor C6    cor C8    cor C7    cor  0.12467       2 180.00    
torsion bond intra
C5    cor C5    cor C5    cor C6    cor  0.15720       2 180.00    
torsion bond intra
C5    cor N6    cor N5    cor C6    cor  0.12142       2 180.00    
torsion bond intra
C5    cor C5    cor C5    cor C5    cor  0.15720       2 180.00    
torsion bond intra
C5    cor C6    cor C7    cor H5    cor  0.17346       2 180.00    
torsion bond intra
C5    cor C5    cor N6    cor H6    cor  0.45533E-01   2 180.00    
torsion bond intra
H5    cor C5    cor C5    cor S5    cor  0.15720       2 180.00    
torsion bond intra
C5    cor C5    cor C6    cor C7    cor  0.30355E-01   2 180.00    
torsion bond intra
C5    cor C5    cor C6    cor H5    cor  0.30355E-01   2 180.00    
torsion bond intra
C6    cor C5    cor C5    cor H5    cor  0.15720       2 180.00    
torsion bond intra
C8    cor C6    cor C5    cor C5    cor  0.30355E-01   2 180.00    
torsion bond intra
C5    cor C5    cor C6    cor N5    cor  0.30355E-01   2 180.00    
torsion improper intra
C5    cor C6    cor C7    cor H5    cor  0.47701E-01   2 180.00    
torsion improper intra
C6    cor C8    cor C7    cor O5    cor  0.45533       2 180.00    
torsion improper intra
C5    cor N6    cor H6    cor N5    cor  0.47701E-01   2 180.00    
torsion improper intra
C8    cor C6    cor C5    cor N5    cor  0.47701E-01   2 180.00    
torsion improper intra
C5    cor C5    cor C5    cor N6    cor  0.23850E-01   2 180.00    
torsion improper intra
C8    cor C7    cor C6    cor H5    cor  0.47701E-01   2 180.00    
torsion improper intra
C5    cor C5    cor C5    cor H5    cor  0.23850E-01   2 180.00    
torsion improper intra
C5    cor C5    cor C5    cor S5    cor  0.23850E-01   2 180.00    
torsion improper intra
C5    cor C5    cor C5    cor C6    cor  0.23850E-01   2 180.00    
element
covalent Na    0.01000
end
#angstoev  14.39964484602919
cutp     10.00000 mdf    2.00000
slower   0.10000000
switch_min rfo   gnorm     0.000500
dump ssy_dimer_c1_m.res                                          
