# LAMMPS input script by s.burrows@qmul.ac.uk

                            # Metal units typically needed for Tersoff/REBO/AIREBO
units       metal           # mass = grams/mole, distance = Angstroms, time = picosecond
                            # energy = eV, pressure = bar

atom_style      atomic

boundary        f f f                                                      # Fixed boundaries, 
                                                                           # will generate error if atom leaves simulation box

region          outerSphere sphere 0.0 0.0 0.0 48.0 side in units box      # Outer sphere - defines simulation box,
                                                                           # LAMMPS will give an error if atoms leave this region
region          poronSphere sphere 0.0 0.0 0.0 44.0 side in units box      # Sphere which contains the void particles
                                                                           # It is larger than carbonSphere to allow voids to be placed
                                                                           # slightly outside of carbonSphere, otherwise there will be a lack
                                                                           # of void volume at the edges of the sphere
region          carbonSphere sphere 0.0 0.0 0.0 40.0 side in units box     # Sphere in which C atoms are added, defines actual size of particle
                                                                           # In this case, radius = 40 Angstrom

create_box      2 outerSphere                                              # Define simulation box using largest sphere (outerSphere)

create_atoms    1 random 1091 123 poronSphere units box                    # Void particles (123 is the random seed)
create_atoms    2 random 13442 123 carbonSphere units box                  # Carbon atoms
 
mass            1 100.0                                                    # Arbitrary mass for voids (any finite value)
mass            2 12.0107                                                  # Mass of C atom

group           porons type 1
group           cb type 2

pair_style      hybrid tersoff soft 5.7                                    # tersoff for C-C interaction, soft for void-C interaction
pair_coeff      * * tersoff SiC.tersoff NULL C                             #
#pair_coeff      * * tersoff C.tersoff NULL C                              # C.tersoff is the default tersoff parameter file SiC.tersoff
                                                                           # lammps/master/potentials/SiC.tersoff
pair_coeff      1 1 soft 0.000 5.7                                         # 5.7 Angstrom cutoff is sum of void radius (4 A) 
pair_coeff      1 2 soft 0.776 5.7                                         # and VdW radius of C atoms (1.7 A)

fix             sphereWall all wall/region outerSphere harmonic 1.0 0.0 8.0 # Harmonic restoring force, k = 1 eV
fix_modify      sphereWall energy yes                                      # Add energy from harmonic force to total energy

velocity        porons set 0.0 0.0 0.0
fix             forceFix porons setforce 0.0 0.0 0.0

comm_style      tiled                                                      # Tiled domain decomposition may be more efficient for
balance         1.1 rcb                                                    # a porous structure with heterogeneous density


#minimize        0.0 1.0e-6 10000 100000                                   # Begin with energy minimization to avoid large forces
#minimize 1.0e-4 1.0e-6 100 1000
minimize 0.0 1.0e-8 1000 100000

compute         tempCB cb temp                                             # Only compute temperature using C atoms
thermo          1000
thermo_style    custom step temp press dt time                             # Customize thermo output to log file
thermo_modify   temp tempCB                                                # Use temperature computed using C atoms only

variable        prefactor equal ramp(0.776,0.039)                          # Set initial and final values of energy parameter A (eV)
fix             softAdapt all adapt 1000 pair soft a 1 * v_prefactor       # in soft potential style (docs.lammps.org/pair_soft.html)

fix             fixT1 cb nvt temp 6000 300 0.02                            # Set initial and final temperatures in Nose-Hoover thermostat

timestep        0.0002                                                     # 0.2 fs time-step

dump            dumpXYZ all xyz 22800000 cnp_tersoff_1.25_018.xyz
#dump            dumpb   all xyz 228000 cnp_tersoff_018.xyz
#dump            dumpc all custom 1000 cnp_tersoff_018.lammpstrj type x y z ix iy iz mass
dump_modify     dumpXYZ element Ar C

dump 1 all cfg 1000 cfg/run_Spherical.*.cfg mass type xsu ysu zsu id type xs ys zs fx fy fz
dump_modify 1 element Ar C

restart         2280000 cnp_tersoff_018.restart                            # Frequency of writing restart file
run             22800000                                                   # Total number of time steps
                                                                           # Quench rate = (T_initial - T_final)/(n_steps*dt)
