Al(7075)(Al,Si,Mg,Cu,Zn): https://koasas.kaist.ac.kr/handle/10203/307792

units metal
dimension 3
boundary p p p 
atom_style atomic

pair_style meam
pair_coeff * * library.meam Al Si Mg Cu Zn AlSiMgCuZn.meam Al Si Mg Cu Zn
