#3.5.2. Input file for tensile testing of a previously equilibrated crystal:
# 3d tensile simulation JP4review

#-------------------- Initialization -----------------------------------------------------
echo both
units metal
boundary p p p

#-------------------- Read structure file ------------------------------------------------
atom_style atomic

read_data EQUILIBRATED_CRYSTAL_file.txt
# reads the data file containing the atom positions of the equilibrated crystal in the specified file

#-------------------- Force field --------------------------------------------------------
pair_style eam/alloy
pair_coeff * * Cu_zhou04.eam.alloy Cu

#-------------------- Settings -----------------------------------------------------------
timestep 0.001

velocity all create 700 482748 rot yes mom yes dist gaussian

fix 1 all deform 1 y erate 0.1 # strain rate of 0.1 [1/sec] is applied in y direction
fix 2 all npt temp 700.0 700.0 10.0 x 0 0 10.0 z 0 0 10.0 dilate all # all atoms rescaled to new positions while temp and pressure is conserved
fix 3 all temp/rescale 10 700 700 0.05 1.0 # Resets the temp of atoms to 700K by rescaling velocities after every 10 steps

compute 1 all stress/atom NULL # computes the symmetric per-atom stress tensor for each atom in a group.
compute 2 all temp # computes the temp of a group of atoms
compute 3 all reduce sum c_1[2]
# reduces vector quantities of all stress tensors in y-direction and adds all the quantities to a single scalar value

dump 1 all atom 100 dump.JP4_tensile_ 10^11s_1_70%strain_allatoms.lammpstrj
dump 2 all custom 1 dump.stress_atom_Jp4_review_10_11s-1_70%strain_f1_allatoms type x y z c_1[1] c_1[2] c_1[3] c_1[4] c_1[5] c_1[6]
# dumps atom type; x,y,z coordinates; 6 stress tensors computed in 1 to an array of 6 elements
#--------------------------------------------------------
log log5050_JP4_review_10_11s-1_70%strain_f1_allatoms.dat

variable stress     equal c_3/(3*160000) # assigns a value to the variable name stress
variable stress_GPa equal v_stress/10000 # converts the stress calculated to GPa

thermo 1
thermo_style custom step temp press vol etotal c_2 v_stress v_stress_GPa

#-------------------- Run the simulation -------------------------------------------------
run 7000 # number of iterations is given so as to give 40% strain to the material

#-------------------- End ----------------------------------------------------------------