# LAMMP PROGRAMMING
# BULK MODULUS CALCULATIONS FOR PdH0.885
#-----------------------------------------------------------------------------------------
# LAMMPS 64-bit 22Dec2022-MSMPI
clear
#-------------------- Environment Settings -----------------------------------------------
variable t index 0.001 # Temperature [K]

#-------------------- Initialization -----------------------------------------------------
units metal
boundary p p p

#-------------------- Atom & Lattice description -----------------------------------------
atom_style atomic

variable a equal 3.89

lattice custom $a a1 1.0 0.0 0.0 a2 0.0 1.0 0.0 a3 0.0 0.0 1.0 &
  basis 0.0 0.0 0.0 basis 0.5 0.5 0.0 basis 0.5 0.0 0.5 &
  basis 0.0 0.5 0.5 basis 0.5 0.5 0.5 basis 0.5 0.0 0.0 &
  basis 0.0 0.5 0.0 basis 0.0 0.0 0.5

region box block 0 4 0 4 0 4
create_box 2 box
create_atoms 1 box basis 5 2 basis 6 2 basis 7 2 basis 8 2

group vacancy id 5:229:8 # PdH0.885
delete_atoms group vacancy

replicate 1 1 1

#-------------------- Force field --------------------------------------------------------
pair_style eam/alloy
pair_coeff * * PdH_Zhou_June29_2007_2.set Pd H

#-------------------- Settings -----------------------------------------------------------

neighbor 0.3 bin
neigh_modify delay 5

#-------------------- Energy Minimization ------------------------------------------------
# 0 [K], structure optimization
#fix 1 all box/relax iso 0.0 vmax 0.001
#minimize 1e-8 1e-8 10000 10000
#unfix 1

#-------------------- Settings -----------------------------------------------------------
reset_timestep 0

timestep 0.001 # 1 [fs]

#-------------------- loop n and p: start
variable n loop 21
variable p index -10000 -9000 -8000 -7000 -6000 -5000 -4000 -3000 -2000 -1000 &
  0 1000 2000 3000 4000 5000 6000 7000 8000 9000 10000
#-------

thermo 1000
thermo_style custom press vol 

#dump 1 all xyz 1000 $p_Pd.xyz 
#-----------------------------------
dump            d1 all cfg 1000 cfg/run.${p}_bar.*.cfg mass type xs ys zs id type vx vy vz fx fy fz
dump_modify     d1 element Pd H 
#-----------------------------------
#log $p_Pd.lammps 

velocity all create $t 4928459

#-------------------- Run the simulation -------------------------------------------------

#----- NPT case -----
fix 1 all npt temp $t $t 1 iso $p $p 100
fix 2 all temp/rescale 1 $t $t 0.01 1.0
#--------------------

#----- NPH case ----- (show ERROR in these parameters)
#fix 1 all nve
#fix 2 all temp/rescale 1 $t $t 0.01 1.0 
#fix 3 all nph iso $p $p 1 drag 100
#--------------------(ERROR: Non-numeric pressure - simulation unstable (src/fix_nh.cpp:1057))

run 10000

clear

#-------
next p
next n
#-------------------- loop n and p: end

jump in_PdH0885.lmp
#-------------------- End ----------------------------------------------------------------