# LAMMP PROGRAMMING
# BULK MODULUS CALCULATIONS FOR PdH0.885

variable t equal 300

units metal
boundary p p p
atom_style atomic
variable a equal 3.89

lattice custom $a a1 1.0 0.0 0.0 a2 0.0 1.0 0.0 a3 0.0 0.0 1.0 &
  basis 0.0 0.0 0.0 basis 0.5 0.5 0.0 basis 0.5 0.0 0.5 &
  basis 0.0 0.5 0.5 basis 0.5 0.5 0.5 basis 0.5 0.0 0.0 &
  basis 0.0 0.5 0.0 basis 0.0 0.0 0.5
#
region box block 0 4 0 4 0 4
create_box 2 box
create_atoms 1 box basis 5 2 basis 6 2 basis 7 2 basis 8 2
#
group vacancy id 5:229:8 # PdH0.885
delete_atoms group vacancy

#
pair_style eam/alloy
pair_coeff * * PdH_Zhou_June29_2007_2.set Pd H 
neighbor 0.3 bin
neigh_modify delay 5
#
variable n loop 21
variable p index -10000 -9000 -8000 -7000 -6000 -5000 -4000 -3000 -2000 -1000 &
  0 1000 2000 3000 4000 5000 6000 7000 8000 9000 10000

#
variable t index 0 
velocity all create $t 4928459

fix 1 all nve 
fix 2 all temp/rescale 1 $t $t 0.01 1.0 
fix 3 all nph iso $p $p 1 drag 100

#fix 1 all npt temp $t $t 1 iso $p $p 100
#fix 2 all temp/rescale 1 $t $t 0.01 1.0

# 
thermo_style custom press vol 
thermo 100
#dump 1 all xyz 1000 $p_Pd.xyz 
#-----------------------------------
dump            d1 all cfg 1000 cfg/run.*.cfg mass type xs ys zs id type vx vy vz fx fy fz
dump_modify     d1 element Pd H 
#-----------------------------------
#
log $p_Pd.lammps 
#
run 10000
clear
next p
next n
jump PdH_0885_BM.in