SystemLabel      sunset_yellow_dim1_new
NumberOfAtoms    78
NumberOfSpecies  6
%block ChemicalSpeciesLabel
    1    6  C
    2   16  S
    3   11  Na
    4    7  N
    5    8  O
    6    1  H
%endblock ChemicalSpeciesLabel
LatticeConstant 1.0 Ang
%block LatticeVectors
       35.000000    0.000000    0.000000
        0.000000   24.000000    0.000000
        0.000000    0.000000   24.000000
%endblock LatticeVectors
AtomicCoordinatesFormat NotScaledCartesianAng
%block AtomicCoordinatesAndAtomicSpecies
   23.64640374    9.96423098   15.30836985   5       1  O
   24.82338895   11.68644229   13.91904173   5       2  O
   24.02239758    9.53819613   12.86950409   5       3  O
   23.67877688   10.63618504   13.90438178   2       4  S
   16.96203641   15.43614614   13.34098823   5       5  O
   18.08708820   14.83124241   13.33655439   1       6  C
   19.27642119   16.67381138   13.48575837   6       7  H
   19.35889531   15.58505617   13.44414102   1       8  C
   21.50447999   15.51723463   13.61045686   6       9  H
   20.58045759   14.93787392   13.50815713   1      10  C
   20.70024649   13.47075332   13.44921195   1      11  C
   22.88562601   13.44014729   13.75589342   6      12  H
   21.98530380   12.84298012   13.59128658   1      13  C
   22.07218854   11.43584755   13.54069100   1      14  C
   21.03882425    9.52723496   13.24113030   6      15  H
   20.92684463   10.61174460   13.30521393   1      16  C
   18.77148182   10.60975577   13.00767861   6      17  H
   19.65923462   11.22301457   13.17309399   1      18  C
   19.51206551   12.65172096   13.27489037   1      19  C
   18.17721548   13.32178682   13.23724502   1      20  C
   17.09209859   12.50747701   13.16841694   4      21  N
   15.85401733   14.12780481   13.23708739   6      22  H
   15.87188370   13.08172311   13.17130100   4      23  N
   13.45958214    9.07217450   13.33507137   6      24  H
   13.48135823   10.16331631   13.36937183   1      25  C
   15.62802050   10.35072537   12.98226815   6      26  H
   14.69041250   10.87608936   13.16825513   1      27  C
   14.68293579   12.30828384   13.24435687   1      28  C
   13.46172572   14.11779285   13.46183367   6      29  H
   13.45367532   13.02393503   13.43607761   1      30  C
   11.30425724   12.83245193   13.82031277   6      31  H
   12.24632959   12.31076322   13.64143636   1      32  C
   12.28275821   10.88783957   13.63484786   1      33  C
   10.71882404    8.55925652   13.54499620   5      34  O
   10.80159967    9.78826933   15.72277638   5      35  O
   10.79093946    9.97357220   14.17682619   2      36  S
    9.49193384   10.74424473   13.81823838   5      37  O
   24.93693525    8.66636025    8.75492877   5      38  O
   24.78974798   10.18067347    8.45063498   2      39  S
   26.01858787   10.92661880    9.03782647   5      40  O
   24.84488666   10.34772571    6.90311591   5      41  O
   23.21857905   10.85566474    9.10152054   1      42  C
   23.19050784   12.19785257    9.57140620   1      43  C
   24.12119952   12.75759239    9.68104511   6      44  H
   21.93600137   12.78544683    9.87364521   1      45  C
   21.87986249   13.82117038   10.22134643   6      46  H
   20.73075892   12.03007347    9.69115231   1      47  C
   20.78253144   10.65660047    9.27890299   1      48  C
   19.85644819   10.09111030    9.16909421   6      49  H
   22.03621754   10.07017053    8.97740841   1      50  C
   22.10511893    9.03508977    8.63718671   6      51  H
   19.50112049   12.71292522    9.89741951   4      52  N
   19.46622212   13.73915723   10.10673150   6      53  H
   18.31715414   12.09858259    9.72349025   4      54  N
   17.18263968   12.83786828    9.83773038   1      55  C
   15.88975989   12.11528314    9.63896381   1      56  C
   15.83025268   10.69847161    9.39061737   1      57  C
   16.75795493   10.12367099    9.37816847   6      58  H
   14.59677624   10.05317152    9.14460814   1      59  C
   14.54893898    8.97991138    8.94855634   6      60  H
   13.39484777   10.82848496    9.15434882   1      61  C
   13.39708873   12.21009316    9.44372646   1      62  C
   12.45610746   12.76553111    9.47189077   6      63  H
   14.64946130   12.87212990    9.69013210   1      64  C
   14.68289803   14.31494774    9.98015927   1      65  C
   13.72467319   14.84273585   10.03285929   6      66  H
   15.86715889   15.00455557   10.18538439   1      67  C
   15.88636365   16.07267892   10.41739965   6      68  H
   17.18150118   14.32355040   10.11212190   1      69  C
   18.27172092   14.97136169   10.28536114   5      70  O
   11.82195735   10.02270158    8.66438708   2      71  S
   11.71668915    8.59085605    9.24965363   5      72  O
   10.60220553   10.85042254    9.14638021   5      73  O
   11.71817157    9.89484569    7.11647339   5      74  O
    8.98104294    8.86158966   14.92036594   3      75  Na
    9.90278175    9.04082350    8.00834832   3      76  Na
   25.64163987    9.67728859   14.47076674   3      77  Na
   26.69694951    9.37653843    7.56477403   3      78  Na
%endblock AtomicCoordinatesAndAtomicSpecies
PAO.SplitNorm         0.15
PAO.SplitNormH        0.5
PAO.EnergyShift  0.001 Ry
PAO.BasisSize    TZP
%block PAO.Basis                                   # Define Basis set
C     2
n=2    0    3
 9.0 2.7 3.6
 1.0 1.0 1.0
n=2    1    3  P 1
 9.0 2.5 3.6
 1.0 1.0 1.0
N     2
n=2    0    3
 9.0 2.5 4.3
 1.0 1.0 1.0
n=2    1    3  P 1
 9.0 2.4 3.8
 1.0 1.0 1.0
O     2
n=2    0    3
 8.5 2.5 5.0
 1.0 1.0 1.0
n=2    1 3 P 1
 9.0 2.4 5.4
 1.0 1.0 1.0
H  1
n=1  0  3 P 1
 8.0 1.8 4.1
 1.0 1.0 1.0
S     2
n=3    0    3
 8.5 2.5 5.0
 1.0 1.0 1.0
n=3    1    3  P 1
 8.5 2.4 5.4
 1.0 1.0 1.0
%endblock PAO.Basis
MD.TypeOfRun    CG
MD.NumCGSteps   0
#MD.Variable-cell True
MD.MaxForceTol  0.01 eV/Ang
#MD.MaxStressTol  200 bar
MaxSCFIterations  500
SolutionMethod diagon
DM.NumberPulay 5
DM.MixingWeight 0.25
DM.Tolerance         1.d-4
XC.Functional VDW
XC.Authors LMKLL
LongOutput true
UseSaveData true
WriteXML false
MeshCutoff  300.0 Ry
