#-----------------------------------------------------------------------------------------
### Created by Eric N. Hahn  ###
### ericnhahn@gmail.com ###
### crumpling of a single graphene sheet ###
### Version 0.1 ###
#-----------------------------------------------------------------------------------------

variable name string graphene_crumple_byconfinement
log log.${name}

#--------------Initialize Simulation--------------------------
dimension	3
units           metal
atom_style      atomic

#--------------Create Atoms-----------------------------------
boundary	p p p
region	box block  -150 150 -150 150 -10 10 units lattice
create_box	1 box

lattice custom 2.4595 a1 1  0  0  a2 0 1.73203 0 &
 basis 0 0 0  basis 0.5 0.16666666666666666 0 &
 basis 0.5 0.5 0 basis 0 0.6666666666666666 0
region	graphene block  -125 125 -125 125 0 0.1 units lattice
create_atoms	1 region graphene 
lattice diamond 3.567

mass * 12.011

#--------------Define Interatomic Potential-------------------
pair_style airebo/morse 3.0
pair_coeff * * CH.airebo-m C

compute 3 all pe/atom
compute 4 all stress/atom NULL pair

#---------Run the simulation for thermal equilibration--------
velocity all create 178 4928459 dist gaussian

fix 1 all npt temp 298 298 .4 x 0.0 0.0 .5 y 0.0 0.0 .5

thermo 10
thermo_style custom step pe ke etotal temp lx ly lz press atoms

dump 1 all custom 25 dump.${name}.* id x y z vx vy vz c_3 c_4[1] c_4[2] c_4[3]

timestep 0.002

fix bp all balance 250 1 shift z 10 1

thermo_style custom step temp ke pe press pxx pyy vol

run 10000

group graphene region graphene

variable ymn equal ylo+4
variable ymx equal yhi-4
variable xmn equal xlo+4
variable xmx equal xhi-4

region middle block ${xmn} ${xmx} ${ymn} ${ymx} -5 5 units box
group middle region middle
group edge subtract graphene middle

unfix 1

variable r0 equal 212
variable rate equal 0.75
variable radius equal "v_r0 - (step-10000)*dt*v_rate"

fix constrain all indent 1 sphere 0 0 0 v_radius side in units box

change_box all boundary s s s

thermo_style custom step temp ke pe press pxx pyy vol v_radius f_constrain[1] f_constrain[2] 

#-------------Run the simulation for confinement -----------------

fix nve all nve

run 100000

print "Job's done" 
#-----------------------------------------------------------------------------------------