# APPENDIX C: 
# CODE USED TO SIMULATE PIEZOELECTIC CONSTANTS IN THIS THESIS
# LAMMPS CODE FOR CORE-SHELL SIMULATION
#-----------------------------------------------------------------------------------------
# Units metal = Energy in eV, time in picoseconds, distance in Angstroms, and 
# charge in multiple of electron charge 
#-----------------------------------------------------------------------------------------
# LAMMPS 64-bit 22Dec2022-MSMPI
clear
#-------------------- Environment Settings -----------------------------------------------
# T = Temperature in K
variable T1 equal 500 # Start T [K]
variable T2 equal 0.1 # End   T [K]

variable N  equal 3
variable N2 equal 10000 # number of thermo (output)

#-------------------- Initialization -----------------------------------------------------
units metal
dimension 3
boundary p p p # Boundary condition

#-------------------- Read structure file ------------------------------------------------
atom_style full # Molecular + Charge

fix csinfo all property/atom i_CSID

read_data ZnS_3x3x3x2_dihedral_Coreshell.data fix csinfo NULL CS-Info

group  cores type 1 2 # Zn S
group shells type 3 4 # Zn S

neighbor 2.0 bin
neigh_modify every 1 delay 0 check yes

comm_modify vel yes

#-------------------- Force field --------------------------------------------------------
pair_style buck/coul/long/cs 12
pair_coeff * *    0.0   1.0     0.0 # Zn_core - Zn_core 
pair_coeff 1 4  672.288 0.39089 0.0 # Zn_core - S_shell 
pair_coeff 4 4 1200.0   0.149   0.0 # S_shell - S_shell 

# core - shell
bond_style harmonic
bond_coeff 1 0 0
bond_coeff 2 6.6513715 0

# Angle style: S_Shell - Zn_Core - S_Shell 
angle_style harmonic_decay
angle_coeff 1 4714170 109.47 0.3 0.3

# Four-body term 
dihedral_style charmm
dihedral_coeff 1 0.005 3 0 0.0

special_bonds coul 0.0 0.0 1.0 angle yes dihedral yes

pair_modify shift yes

kspace_style ewald 1.0e-6

#-------------------- Settings -----------------------------------------------------------

# Time step in ps
timestep 0.001 # 1 [fs]

compute CStemp all temp/cs cores shells 
compute thermo_press_lmp all pressure thermo_temp # press for correct kinetic scalar

variable xl equal (lx/(2*$N))
variable yl equal (ly/(2*$N))
variable zl equal (lz/(2*$N))

variable    al equal v_xl 
variable    bl equal v_yl
variable    cl equal v_zl
variable     s equal step
variable   Vol equal vol
variable srate equal -1.0e08

thermo 1000
thermo_style custom step lx ly lz press pxx pyy pzz pe temp v_xl v_yl v_zl
thermo_modify temp CStemp press thermo_press_lmp

#---------------------------------------------------
dump 1 all xyz ${N2} ZnS_Binks_$Nx$Nx$N_${T2}K_Relaxed.xyz 
#dump_modify 1 element Zn O
#---------------------------------------------------
dump 12 all custom ${N2} ZnS_$Nx$Nx$N_${T2}K_Z_U.atom id type xu yu zu 
dump_modify 12 sort id
#---------------------------------------------------

# Velocity bias option
velocity all create ${T1} 134 dist gaussian mom yes rot no bias yes temp CStemp
velocity all scale  ${T1} temp CStemp

#-------------------- Equilibration Run --------------------------------------------------
# Run for at least 10 picosecond (assuming 1 fs timestep)
# Number of steps (Time = timestep * number of steps)

#-------------------- NVE (T1 [K] - T1 [K])

# Thermosetting using the core/shell decoupling 
fix 1 all temp/berendsen ${T1} ${T1} 0.4
fix 2 all nve
fix_modify 1 temp CStemp

run 10000

unfix 1
unfix 2

#-------------------- NPT (T1 [K] - T2 [K])

fix  3 all npt temp ${T1} ${T2} 0.04 iso 0 0 0.4
fix 11 all temp/rescale 1 ${T1} ${T2} 0.05 1.0
fix_modify 3 temp CStemp press thermo_press_lmp # pressure for correct kinetic scalar

fix def2 all print 100000 "0 0 ${al} ${bl} ${cl} ${Vol}" &
  file ZnS_$Nx$Nx$N_${T2}K_Z_${srate}_lattice.txt screen no title ""

run 100000

unfix 3
unfix 11
unfix def2

#-------------------- NPT (T2 [K] - T2 [K])

fix 1 all npt temp ${T2} ${T2} 1 iso 0 0 1 drag 1 
fix 2 all temp/rescale 1 ${T2} ${T2} 0.05 1.0

fix def2 all print 100000 "0 0 ${al} ${bl} ${cl} ${Vol}" &
  file ZnS_$Nx$Nx$N_${T2}K_Z_${srate}_lattice.txt screen no title ""

run 100000

unfix 1
unfix 2
unfix def2

#-------------------- 

#min_style cg
#min_modify line quadratic dmax 0.001
#fix 1 all box/relax iso 0.0 vmax 0.001
#minimize 1.0E-09 1.0E-09 100000 1000000
#unfix 1
undump 1

thermo 10
thermo_style custom step etotal evdwl ecoul v_xl v_yl v_zl

write_restart optimized.data

# Store final cell length for strain calculations
variable tmp equal "lz"
variable  L0 equal ${tmp}
print "Initial Length, L0: ${L0}"

# ------------------------ Dynamic Run -------------------------------
reset_timestep 0

fix 1 all nvt/sllod temp ${T2} ${T2} 1 drag 1

# Strain rate in 1/ps
variable srate1 equal "v_srate / 1.0e12"

fix 2 all deform 1 z erate ${srate1} units box remap v

fix_modify 3 temp CStemp # pressure for correct kinetic scalar

# Output strain and stress info to file
# For units metal, pressure is in [bars] = 100 [kPa] = 1/10000 [GPa]
# p2, p3, p4 are in GPa

variable     dl equal "((lz-v_L0)/2) + v_L0"
variable strain equal "(lz-v_L0)/v_L0"
variable     p1 equal "v_strain"
variable     p2 equal "-pxx/10000"
variable     p3 equal "-pyy/10000"
variable     p4 equal "-pzz/10000"
variable    vol equal "lx*ly*lz"

#---------- output file settings -------------------
fix def1 all print ${N2} "${p1} ${p2} ${p3} ${p4}" &
  file ZnS_$Nx$Nx$N_${T2}K_Z_${srate}_defl.txt screen no

fix def2 all print ${N2} "${s} ${p1} ${al} ${bl} ${cl} ${Vol}" &
  append ZnS_$Nx$Nx$N_${T2}K_Z_${srate}_lattice.txt screen no title ""

thermo ${N2}
thermo_style custom step v_strain temp press v_xl v_yl v_zl vol

dump 1 all xyz ${N2} ZnS_${T2}K_Z_SS_${srate}.*.xyz 
dump 2 all custom ${N2} ZnS_${T2}K_Z_SS_U_${srate}.*.atom id type xu yu zu 
dump_modify 2 sort id
#---------------------------------------------------

run 100000

print "All done"

#-------------------- End ----------------------------------------------------------------