#LAMMPS Input file
# Title
clear

# ----- condition settings -----

variable    temp index 298.0 # K

variable    pres index 100.0 # 10.0 MPa (bar units)


# -----other settings -----
variable        fs    index 0.0010 # 1.0 fs
variable        ps    index 20 # 20 ps
variable        nstep equal ${ps}/${fs}
variable        tdamp equal ${fs}*100
variable        pdamp equal ${fs}*1000

# ----- Structure settings -----
units           metal
atom_style      atomic
dimension       3
boundary        p p p
read_data       Zr4WC5.data
replicate       1 1 1
timestep        ${fs}

# ----- Potential settings (ML-SNAP)-----
include in.pot_snapWZrC

# ----- Relax calculation (0 K) -----
thermo_style    custom step etotal temp lx vol press pxx pyy pxy
thermo          10

fix             f1 all box/relax iso 0.0
minimize        1.0e-10 0.0 1000 100000
unfix           f1

# ----- Output setting -----
dump            d1 all cfg 100 cfg/run.*.cfg mass type xs ys zs id type
dump_modify     d1 element W Zr C

# ----- Check equilibriation setting -----
variable        energy equal etotal
variable        temperature equal temp
fix             fout1 all ave/time 1 100 100 v_energy v_temperature file out_energy.txt

# ----- Equilibriation -----
velocity        all create 10.0 123456
fix             f1 all npt temp 10.0 ${temp} ${tdamp} iso 0.0 ${pres} ${pdamp}
run             ${nstep} # 20 ps
unfix           f1

# ----- Calculation -----
# fix            f1 all deform 1 x erate 0.001 remap x
fix             f1 all nvt temp ${temp} ${temp} ${tdamp}
run             ${nstep} # 20 ps
unfix           f1

# ----- Radial Distribution Function -----
#comm_modify     cutoff 14
compute         distribution all rdf 240
fix             f1 all ave/time 1 1000 3000 c_distribution[*] file out_rdf.txt mode vector

# ----- Mean Square Displacement -----
group           W type 1
compute         Wmsd W msd
fix             f2 all ave/time 1 1 5 c_Wmsd[*] file out_W_msd.txt
# -----
group           Zr type 2
compute         Zrmsd Zr msd
fix             f3 all ave/time 1 1 5 c_Zrmsd[*] file out_Zr_msd.txt
# -----
group           C type 3
compute         Cmsd C msd
fix             f4 all ave/time 1 1 5 c_Cmsd[*] file out_C_msd.txt
# -----
compute         allmsd all msd
fix             f5 all ave/time 1 1 5 c_allmsd[*] file out_all_msd.txt

fix             f6 all nvt temp ${temp} ${temp} ${tdamp}
run             3000

# ----- Output restart data -----
write_data data.in.restart