#LAMMPS Input file
# Title
clear

# ----- condition settings -----

variable        Erate index 0.05 # 1/(1.0 fs), if Erate < 0.0 (compress)

variable        temp index 298.0 # K

variable        pres index 1.0 # 0.1 MPa (bar units)


# -----other settings -----
variable        fs    index 0.0010 # 1.0 fs
variable        ps    index 20 # 20 ps
variable        nstep equal ${ps}/${fs}
variable        tdamp equal ${fs}*100
variable        pdamp equal ${fs}*1000

# ----- Structure settings -----
units           metal
atom_style      atomic
dimension       3
boundary        p p p
read_data       data_5x4x4.in
replicate       1 1 1
timestep        ${fs}

# ----- Potential settings (MEAM)-----
# -----HEA (Co-Ni-Cr-Fe-Mn)
pair_style      meam/c
pair_coeff      * * ./meam/CoNiCrFeMn.HEA.library.meam Co Ni Cr Fe Mn ./meam/CoNiCrFeMn.HEA.meam Co Ni Cr Fe Mn
# -----(Al-Si-Mg-Cu-Fe)
#pair_style      meam/c
#pair_coeff      * * ./meam/Jelinek_2012_meamf AlS SiS MgS CuS FeS ./meam/Jelinek_2012_meam.alsimgcufe AlS SiS MgS CuS FeS

# ----- Potential settings (EAM)-----
# -----(Ag-Au-Cu-Ni-Pd-Pt)
#pair_style      eam
#pair_coeff      1 * ./eam/DYNAMO/cuu6.txt
#pair_coeff      2 * ./eam/DYNAMO/agu6.txt
#pair_coeff      3 * ./eam/DYNAMO/auu6.txt
#pair_coeff      4 * ./eam/DYNAMO/niu6.txt
#pair_coeff      5 * ./eam/DYNAMO/ptu6.txt

# ----- Potential settings (EIM)-----
#pair_style      eim
#pair_coeff      * * Li Na K Rb Cs F Cl Br Id ./eim/BrClCsFIKLiNaRb.ffield.eim F K Li Na Rb

# ----- Relax calculation (0 K) -----
thermo_style    custom step etotal temp lx vol press pxx pyy pxy
thermo          10

fix             f1 all box/relax iso 0.0
minimize        1.0e-10 0.0 1000 100000
unfix           f1

# ----- Output setting -----
dump            d1 all cfg 100 cfg/run.*.cfg mass type xs ys zs id type
dump_modify     d1 element Co Ni Cr Fe Mn
#dump_modify     d1 element Al Si Mg Cu Fe  # Al-Si-Mg-Cu-Fe

# ----- Check equilibriation setting -----
variable        energy equal etotal
variable        temperature equal temp
fix             fout1 all ave/time 1 100 100 v_energy v_temperature file out_energy.txt

# ----- Equilibriation -----
velocity        all create 10.0 123456
fix             f1 all npt temp 10.0 ${temp} ${tdamp} iso 0.0 ${pres} ${pdamp}
run             ${nstep} # 20 ps
unfix           f1

# ----- Calculation -----
fix             f1 all deform 1 x erate ${Erate} remap x
fix             f2 all nvt temp ${temp} ${temp} ${tdamp}
run             ${nstep} # 20 ps
unfix           f1
unfix           f2

# ----- Radial Distribution Function -----
#comm_modify     cutoff 14
compute         distribution all rdf 240
fix             f1 all ave/time 1 1000 3000 c_distribution[*] file out_rdf.txt mode vector

# ----- Mean Square Displacement -----
group           Co type 1
compute         Comsd Co msd
fix             f2 all ave/time 1 1 5 c_Comsd[*] file out_Co_msd.txt
# -----
group           Ni type 2
compute         Nimsd Ni msd
fix             f3 all ave/time 1 1 5 c_Nimsd[*] file out_Ni_msd.txt
# -----
group           Cr type 3
compute         Crmsd Cr msd
fix             f4 all ave/time 1 1 5 c_Crmsd[*] file out_Cr_msd.txt
# -----
group           Fe type 4
compute         Femsd Fe msd
fix             f5 all ave/time 1 1 5 c_Femsd[*] file out_Fe_msd.txt
# -----
group           Mn type 5
compute         Mnmsd Mn msd
fix             f6 all ave/time 1 1 5 c_Mnmsd[*] file out_Mn_msd.txt
# -----
compute         allmsd all msd
fix             f7 all ave/time 1 1 5 c_allmsd[*] file out_all_msd.txt

fix             f8 all nvt temp ${temp} ${temp} ${tdamp}
run             3000

# ----- Output restart data -----
write_data data.in.restart