#------------------------------------------------------------------------------------------
# A-4, Quasi Isentropic Loading
#------------------------------------------------------------------------------------------
# LAMMPS 64-bit 22Dec2022-MSMPI
#------------------------------------------------------------------------------------------
# NIST, Interatomic Potentials (Force Fields): https://www.ctcms.nist.gov/potentials/
#------------------------------------------------------------------------------------------

# ------------------------ INITIALIZATION ----------------------------
units metal
dimension 3
boundary p p p
atom_style atomic

variable latparam equal 3.304

# ----------------------- ATOM DEFINITION ----------------------------
lattice bcc ${latparam} orient x 1 0 0 orient y 0 1 0 orient z 0 0 1
#region box block -150 150 -150 150 -150 150 units lattice
region box block 0 10 0 10 0 30 units lattice
create_box 1 box
create_atoms 1 region box

#read_data data.example

pair_style eam/alloy
#pair_coeff * * ./Ta1-Ravelo.setfl Ta
pair_coeff * * Ta1_Ravelo_2013.eam.alloy Ta

# ------------------------- SETTINGS ---------------------------------
compute 1 all ke/atom
compute 3 all pe/atom
compute 4 all stress/atom NULL
compute 5 all cna/atom 3.9

######################################
thermo_style custom step temp ke pe etotal press pxx pyy pzz pxy pxz pyz ly lx lz vol
thermo_modify lost warn norm yes
thermo 100

reset_timestep 0

# Store final cell length for strain calculations
variable tmp equal "lz"
variable L0 equal ${tmp}
print "Initial Length, L0: ${L0}"

######################################
# DEFORMATION
fix 1 all nve

# Output strain and stress info to file
# for units metal, pressure is in [bars] = 100 [kPa] = 1/10000 [GPa]
# p2, p3, p4 are in GPa
variable strain equal "(lz - v_L0)/v_L0"
variable p1 equal "v_strain"
variable p2 equal "-pxx/10000"
variable p3 equal "-pyy/10000"
variable p4 equal "-pzz/10000"
variable p5 equal "temp"
variable p6 equal "step"
variable p7 equal "lz"
fix def1 all print 100 "${p1} ${p2} ${p3} ${p4} ${p5} ${p6} ${p7}" file Ta_QI.def.txt screen no

# Dump for Ovito post processing 
dump OUT1 all custom 1000 dump/dump.QI.* id x y z vx vy vz c_1 c_3 c_5 c_4[1] c_4[2] &
  c_4[3] c_4[4] c_4[5] c_4[6]
dump OUT2 all custom 500 dump/dump.QI_defects.* id x y z vx vy vz c_3 c_5 c_4[3]

## modify to get only non-bcc atoms (cna!=3)
dump_modify OUT2 thresh c_5 != 3

variable sratet equal 1.0e9
variable sratet1 equal "v_sratet / 1.0e12"

fix 2 all deform 1 z erate ${sratet1} units box remap x

run 500000

######################################
# SIMULATION DONE
print "All done!"
#------------------------------------------------------------------------------------------