# Molecular Dynamics Simulation of Mechanical Damage Assessment
# b) A copy of the 16 Output Files from the Mechanical Damage Assessment

# Determination of the cohesive energy and equilibrium lattice constants of 
# the FeNiCr.eam.alloy potential with fcc configuration Adapted from Mark Tschopp, 2010

#By Collins Nana Andoh(10443957) 
# ---------- Initialize Simulation ---------------------
clear 

units metal 
dimension 3 
boundary p p p 
atom_style atomic 


# ---------- Create Atoms ---------------------
lattice fcc 3.5918 

region new_region block 0 10 0 10 0 10 
create_box 1 new_region 

lattice fcc 3.5918 orient x 1 0 0 orient y 0 1 0 orient z 0 0 1 

create_atoms 1 region new_region 

replicate 1 1 1 


# ---------- Define Interatomic Potential ---------------------
pair_style eam/alloy 
pair_coeff * * FeNiCr.eam.alloy Fe 

neighbor 2.0 bin 
neigh_modify delay 0 every 10 check yes 


# ---------- Define Settings ---------------------
compute csym all centro/atom fcc 
compute eng all pe/atom 


# ---------- Equilibration---------------------
#reset timer 
reset_timestep 0 

#2 fs time step 
timestep 0.002

#initial velocities 
velocity all create 300 12345 mom yes rot no

#thermostat + barostat (1 degree= 273 K and 1 MPa= 10 bar 
fix 1 all npt temp 300 300 1 iso 0 0 1 drag 1.0

# instrumentation and output 
variable s1 equal "time" 
variable s2 equal "lx" 
variable s3 equal "ly" 
variable s4 equal "lz" 
variable s5 equal "vol" 
variable s6 equal "press" 
variable s7 equal "pe" 
variable s8 equal "ke" 
variable s9 equal "etotal" 
variable s10 equal "temp" 

fix writer all print 250 "${s1} ${s2} ${s3} ${s4} ${s5} ${s6} ${s7} ${s8} ${s9} ${s10}" #file Fe_eq.txt screen no 

# thermo 
thermo 500 
thermo_style custom step time cpu cpuremain lx ly lz press pe temp 

#dumping trajectory 
dump 1 all atom 250 dump.eq.lammpstrj 

dump            d1 all cfg 250 cfg/run.equil*.cfg mass type xs ys zs id type vx vy vz fx fy fz
dump_modify     d1 element Fe

#24 ps MD Simulation (assuming 2 fs time step) 
run 12000 

#clearing fixes and dumps 
unfix 1 
undump 1 
undump d1

#saving equilibrium length for strain calculation 
variable tmp equal "lx" 
variable L0 equal ${tmp} 
print "Initial Length, L0: ${L0}" 


#------------------DEFORMATION-----------------------
#reset timer 
reset_timestep 0 

#2 fs time step 
timestep 0.002 

# thermostat + barostat 
fix 1 all npt temp 300 300 1 y 0 0 1 z 0 0 1 drag 1.0

#nonequilibrium straining in x-direction at strain rate = 1x 10^10 / s = 1x10^2 / ps in units metal 
#variable srate equal 1.0e10 
variable srate1 equal 5e-3 
fix 2 all deform 1 x erate ${srate1} units box remap x 
fix 2 all deform 1 x erate 0.005 units box remap x 

#instrumentation and output for units metal, pressure is in #[bars] = 100 [kPa]= 1/10000 [GPa] => p2, p3, p4, are in GPa 
variable strain equal "(lx - v_L0)/v_L0" 
variable p1 equal "v_strain" 
variable p2 equal "-pxx/10000" 
variable p3 equal "-pyy/10000" 
variable p4 equal "-pzz/10000" 
fix writer all print 125 "${p1} ${p2} ${p3} ${p4}" file Fe.deform.txt screen no 

#thermo 
thermo 1000 
thermo_style custom step cpuremain v_strain v_p2 v_p3 v_p4 press pe temp 

#dumping standard atom trajectrories 
dump 1 all atom 5000 dump.deform.lammpstrj 

#dumping custom cfg files containing coords + ancillary variables 
dump 2 all cfg 5000 cfg/dump.deform_*.cfg mass type xs ys zs c_csym c_eng fx fy fz 
dump_modify 2 element Fe 

#dump            d2 all cfg 250 cfg/run.equil*.cfg mass type xs ys zs id type vx vy vz fx fy fz
#dump_modify     d2 element Fe

#40 ps MD Simulation (assuming 2 fs time step) 
run 20000

# clearing fixes and dumps 
unfix 1 
unfix 2 
unfix writer 
undump 1 
undump 2 
######################## 
print "All done" 