#1. Lattice Parameters and cohesive energy folder contains calculations for EAM and 
# MEAM for zirconium as discussed in Chapter 4
# Sample program to calculate lattice parameters for pure alpha-Zr using EAM and MEAM
#-----------------------------------------------------------------------------------------
# LAMMPS 64-bit 22Dec2022-MSMPI
clear
log lattice.out
#-------------------- Initialization -----------------------------------------------------
units metal
boundary p p p

#-------------------- Atom & Lattice description ----------------------------------------
atom_style atomic

lattice hcp 3.232

region box block 0 5 0 3 0 3
create_box 1 box

create_atoms 1 box

#-------------------- Force field --------------------------------------------------------
pair_style meam
pair_coeff * * library.meam Zr H ZrH.meam Zr

#-------------------- Settings -----------------------------------------------------------
# regions of sample
neighbor 2.0 bin
neigh_modify delay 0 every 1

compute    eng all pe/atom
compute eatoms all reduce sum c_eng

thermo 1
thermo_style custom step pe lx ly lz press pxx pyy pzz c_eatoms vol etotal

#---------- output file settings -------------------------
#dump 1 all custom 100 atom.dump id type x y z
#dump_modify 1 every 100
#---------------------------------------------------------
dump            d1 all cfg 1 cfg/run.*.cfg mass type xs ys zs id type vx vy vz fx fy fz
dump_modify     d1 element Zr
#---------------------------------------------------------

#-------------------- Energy Minimization ------------------------------------------------

fix 1 all nve/limit 0.1

minimize 1.0e-6 1.0e-6 10000 10000

unfix 1

#-------------------- Calculate energy ----------------------------------------------------
#reset_timestep 0

fix 1 all box/relax aniso 0.0 vmax 0.1

min_style cg
minimize 1.0e-6 1.0e-6 10000 10000

variable     teng equal c_eatoms
variable length_x equal lx
variable length_z equal lz
variable   natoms equal atoms
variable     ecoh equal v_teng/v_natoms

print "Total energy (eV) = ${teng};"
print "Number of atoms = ${natoms};"
print "Lattice constant, x (Angstoms) = ${length_x};"
print "Lattice constant, z (Angstoms) = ${length_z};"
print "Cohesive energy (eV) = ${ecoh};"

print "All done !"
#-------------------- End ----------------------------------------------------------------
