# Test of 2NN MEAM Fe-Mn potential in LAMMPS

units		metal
atom_style	atomic
boundary	p p p
atom_modify	sort 0 0.0

read_data	fcc_50mn.inil

pair_style	meam
pair_coeff	* * library.meam Fe Mn FeMn-para.meam Fe Mn

neighbor	0.3 bin

fix             1 all npt temp 0.000001 0.000001 100.0 iso 0. 0. 1000.
thermo		10
timestep	0.001
run             10000
