### The following input file depicts the tensile sample for Pd50-Pt50 alloy nanowire
#-----------------------------------------------------------------------------------------
# LAMMPS 64-bit 22Dec2022-MSMPI
clear
#-------------------- Environment Settings -----------------------------------------------
variable  Tdesird equal  100.0 # Desired Temperature [K]

variable   Nsteps equal  75000 # Number of simulation cycles
variable DumpFreq equal    100 # For print out

variable    dt_ps equal  0.002 # 0.002 [ps] = 2 [fs]

variable   t_rate equal    0.1 # true strain rate (1/time units)
#-------------------- Initialization -----------------------------------------------------
echo both
units metal
dimension 3
boundary p p p

#-------------------- Atom and Lattice definition (read structure file) ------------------
atom_style atomic

read_data sample_data_tensile.txt # data from step1

#-------------------- Force field --------------------------------------------------------
pair_style eam/alloy
pair_coeff * * PdPt_Zhou04.eam.alloy Pd Pt

#-------------------- Settings -------------------------------------------------------------

timestep ${dt_ps} # 2 [fs]

compute 1 all stress/atom NULL  # computes the symmetric per-atom stress tensor for each atom in a group.
compute 2 all temp              # computes the temp of a group of atoms
compute 3 all reduce sum c_1[2] # reduces vector quantities of all stress tensors in z-direction and adds all the quantities to a single scalar value

variable stress     equal c_3/vol # assigns a value to the variable name stress
variable stress_GPa equal v_stress/10000 # converts the stress calculated to GPa

variable    tmp equal ly
variable     lo equal ${tmp}
variable strain equal (ly-v_lo)/v_lo

variable     p2 equal -pyy/10000 # [GPa]
# for units metal, pressure is in 1 [bars] = 100 [kPa] = 0.1 [MPa] = 1x10^-4 [GPa] => p1, p2, p3, are in GPa

thermo 100
thermo_style custom step temp vol etotal pyy lx ly lz v_stress v_strain

#---------- output file settings -------------------
fix fo1 all ave/time 1 3 3 c_2 v_strain v_stress v_stress_GPa v_p2 file stress_vs_strain.txt
#---------------------------------------------------
dump            d1 all cfg ${DumpFreq} cfg/run.*.cfg mass type xs ys zs id type vx vy vz fx fy fz
dump_modify     d1 element Pd Pt
#---------------------------------------------------

velocity all create  ${Tdesird} 873847 rot yes mom yes dist gaussian

#-------------------- Run the simulation -------------------------------------------------

fix 1 all deform 1 x volume y trate ${t_rate} z volume units box 

fix 2 all nvt temp ${Tdesird} ${Tdesird} $(100*dt)

run ${Nsteps}

#--------------------------------------------------------------------------------
# The calculation conditions for this time are as follows.
#--------------------------------------------------------------------------------
variable strain_rate equal "(v_strain)/(v_dt_ps * Nsteps)" # [1/ps]
print "true strain rate: ${strain_rate} x 10^12 [1/ps]"
#--------------------------------------------------------------------------------

#-------------------- End ----------------------------------------------------------------

#-----------------------------------------------------------------------------------------
# Note
# compute        peratom all stress/atom NULL
# compute        p all reduce sum c_peratom[1] c_peratom[2] c_peratom[3]
# variable       press equal -(c_p[1]+c_p[2]+c_p[3])/(3*vol)
# thermo_style   custom step temp etotal press v_press
# metal unit: press = bar = 0.1 MPa, length = Angstrom = 1e-10 m
#-----------------------------------------------------------------------------------------