# graphene

echo both
units	        metal 
atom_style	atomic
boundary p p p
read_data       data.graphene
pair_style meam
pair_coeff * * lib.meam C C.meam C


timestep        0.001 
neighbor        2.0 bin
thermo          10
thermo_style custom step temp press pxx pyy pzz vol etotal 
thermo_modify lost warn
dump		1 all atom 250 graph.lammpstrj

minimize 0.0 1.0e-8 1000 100000

fix 1 all nve
run		5000

