#6. Strain diffusion calculations as discussed in Chapter 6
# Methodology
# Strain induced diffusion is done on zirconium with hydrogen placed inside a sphere of zirconium.
# The structure is energy and pressure minimized. It is then equilibrated and MSD is 
# calculated before strain. The structure is then deformed and MSD along 3 directions is 
# calculated using the following code.
#-----------------------------------------------------------------------------------------
# LAMMPS 64-bit 22Dec2022-MSMPI
clear
#-------------------- Initialization -----------------------------------------------------
units metal
boundary p p p

#-------------------- Atom & Lattice description ----------------------------------------
atom_style atomic

lattice hcp 3.232 orient x 1 0 0 orient y 0 1 0 orient z 0 0 1
region box block 0 10.0 0 6.0 0 6.0
create_box   2 box # set 2 types (Zr and H)

create_atoms 1 box

region fcc sphere 5.0 3.0 3.0 1 side in

delete_atoms region fcc
create_atoms 2 random 50 878567 fcc # 50 atoms in group hydrogen

group       zr type 1 # Zr
group hydrogen type 2 # H

mass 1 91.224 # Zr
mass 2 1.0079 # H

#-------------------- Force field --------------------------------------------------------
pair_style meam
pair_coeff * * library.meam Zr H ZrH.meam Zr H

#-------------------- Settings -----------------------------------------------------------
neighbor 2.0 bin
neigh_modify delay 10 check yes

#-------------------- Energy Minimization ------------------------------------------------
fix 1 all nve/limit 0.1
minimize 1.0e-6 1.0e-6 10000 10000
unfix 1

#--------------------

fix 1 all box/relax aniso 0.0 vmax 0.1
minimize 1.0e-6 1.0e-6 10000 10000
unfix 1

#-------------------- calculates the mean-squared displacement (MSD) ---------------------
reset_timestep 0

timestep 0.0001 # 0.1 [fs], (Note: the atoms are lost at 1 [fs].)

thermo 1000
thermo_style custom step temp pe press vol

compute 5 zr msd
compute 6 hydrogen msd

velocity all create 800 12345 mom yes rot no

fix 1 all npt temp 800 800 1 iso 0 0 1 drag 0.5
fix 2 hydrogen ave/time 10 5 1000 c_6[1] c_6[2] c_6[3] c_6[4] file diff.txt

run 60000

unfix 1
unfix 2

#-------------------- Store final cell length for strain calculations --------------------
variable tmp equal "lz"
variable  L0 equal ${tmp}
print "Initial Length, L0: ${L0}"

#-------------------- Diffuision calculation on strain -----------------------------------
reset_timestep 0

timestep 0.0001 # 0.1 [fs]

# Output strain and stress info to file
# for units metal, pressure is in [bars] = 100 [kPa] = 1/10000 [GPa]
# p1, p2, p3 are in GPa
variable strain equal "(lz - v_L0)/v_L0"
variable p0 equal "v_strain"
variable p1 equal "-pxx/10000"
variable p2 equal "-pyy/10000"
variable p3 equal "-pzz/10000"

thermo 10000
thermo_style custom step etotal ke temp pe press vol v_strain v_p1 v_p2 v_p3

compute 7 zr msd
compute 8 hydrogen msd

variable  srate equal 1.0e9
variable srate1 equal "v_srate / 1.0e12"

fix 1 all deform 1 z erate ${srate1} units box remap x
fix 2 all npt temp 800 800 1 x 0 0 1 y 0 0 1 drag 0.5
fix 3 hydrogen ave/time 100 5 1000 c_8[1] c_8[2] c_8[3] c_8[4] file diff1.txt

run 400000

unfix 1
unfix 2
unfix 3

#-------------------- Diffuision calculation after strain -----------------------------------
reset_timestep 0

timestep 0.0001 # 0.1 [fs]

thermo 1000
thermo_style custom step temp pe press vol

compute 10 zr msd
compute 11 hydrogen msd com yes

velocity all create 800 12345 mom yes rot no

fix 1 all nvt temp 800 800 100.0
fix 2 hydrogen ave/time 10 5 1000 c_11[1] c_11[2] c_11[3] c_11[4] file diff2.txt

run 500000

unfix 1
unfix 2

print "All done !"
#-------------------- End ----------------------------------------------------------------