#8. Crack Interface folder contains calculations for MEAM as discussed in Chapter 8
#Methodology
# Interface (0001) alpha-Zr // {111} delta-ZrH1.5 is created using FORTRAN programming language. 
# The distance at the interface is similar to the distance of zirconium along ‘c’ directions. 
# Interface is tested for stability and minimized energy. The following script calculates lattice 
# parameters and cohesive energies. The structure is then equilibrated at various temperatures 
# and a constant strain rate is applied on Interface to study crack initiation.
#-----------------------------------------------------------------------------------------
# LAMMPS 64-bit 22Dec2022-MSMPI
clear
#log l.out
#-------------------- Initialization -----------------------------------------------------
units metal
boundary p p p

#-------------------- Atom & Lattice description ----------------------------------------
atom_style atomic

# About 80 x 70 x 40 Angstrom
# Interface (0001) alpha-Zr // {111} delta-ZrH2
#-----------------------------------------------------------------------
# (0001) alpha-Zr
#-----------------------------------------------
region new_region block 0 80 0 70 -20 20 units box 
create_box 2 new_region # define 2 types (Zr and H)

region upper block 0 80 0 70 0 20 units box
lattice hcp 3.232 orient x 1 0 0 orient y 0 1 0 orient z 0 0 1
create_atoms 1 region upper 
#-----------------------------------------------

# {111} delta-ZrHx (x = about 1.5)
#-----------------------------------------------
region lower block 0 80 0 70 -20 0 units box 
lattice fcc 4.83 orient x 1 -1 0 orient y 1 1 -2 orient z 1 1 1
create_atoms 1 region lower 

lattice sc 2.415 origin 0.5 0.5 0.5 orient x 1 -1 0 orient y 1 1 -2 orient z 1 1 1
#create_atoms 2 region lower # ZrH2 case
create_atoms 2 random 5112 878567 lower # set H 5112 atoms, randomly. ZrH1.5 case

# creating composition
#set region upper type/fraction 2 0.1 12393 #  H (= type 2) in upper
#set region lower type/fraction 1 0.1 12393 # Zr (= type 1) in lower
#-----------------------------------------------
#-----------------------------------------------------------------------

# Interface (0001) alpha-Zr // {111} delta-ZrH1.5
#read_data ihcpl.in

group       zr type 1 # Zr
group hydrogen type 2 # H

mass 1 91.224  # Zr
mass 2  1.0079 # H

#-------------------- Force field --------------------------------------------------------
pair_style meam
pair_coeff * * library.meam Zr H ZrH.meam Zr H

#-------------------- Settings -----------------------------------------------------------

delete_atoms overlap 0.35 all all

neighbor 2 bin
neigh_modify delay 10 check yes

compute    eng all pe/atom
compute eatoms all reduce sum c_eng

thermo 100
thermo_style custom step pe lx ly lz press pxx pyy pzz c_eatoms 

#-------------------- Energy Minimization ------------------------------------------------
fix 1 all nve/limit 0.1
minimize 1.0e-6 1.0e-6 10000 10000
unfix 1

#-------------------- 
fix 1 all box/relax aniso 0.0 vmax 0.1
min_style cg
minimize 1.0e-6 1.0e-6 10000 10000
unfix 1

variable natoms equal "count(all)"
variable   teng equal "c_eatoms"
variable length equal "lx"
variable   ecoh equal "v_teng/v_natoms"

print "Total energy (eV) = ${teng};"
print "Number of atoms = ${natoms};"
print "Lattice constant, x (Angstoms) = ${length};"
print "Cohesive energy (eV) = ${ecoh};"

#-------------------- Run the simulation (NPT) -------------------------------------------
#-------------------- EQUILIBRATION ------------------------------------------------------
reset_timestep 0

timestep 0.0001 # 0.1 [fs]

thermo 1000
thermo_style custom step lx ly lz press pxx pyy pzz pe temp vol ke etotal 

#---------------------------------------------------
dump            d1 all cfg 1000 cfg/run.relax.*.cfg mass type xs ys zs id type vx vy vz fx fy fz
dump_modify     d1 element Zr H
#---------------------------------------------------

velocity all create 800 12345 mom yes rot no

fix 1 all npt temp 800 800 1 aniso 0 0 1 drag 0.5 

run 60000

unfix 1

undump d1

#-------------------- Store final cell length for strain calculations ---------------------
reset_timestep 0

timestep 0.0001 # 0.1 [fs]

variable tmp equal "lx"
variable  L0 equal ${tmp}
print "Initial Length, L0: ${L0}"

# Output strain and stress info to file
# for units metal, pressure is in [bars] = 100 [kPa] = 1/10000 [GPa]
# p1, p2, p3 are in GPa
variable strain equal "(lx - v_L0)/v_L0"
variable p0 equal "v_strain"
variable p1 equal "-pxx/10000"
variable p2 equal "-pyy/10000"
variable p3 equal "-pzz/10000"

thermo 1000
thermo_style custom step v_strain temp v_p1 v_p2 v_p3 ke pe press vol

#---------- output file settings -------------------
#dump 4 all custom 1000 Interface.dump id type xu yu zu ix iy iz
#dump_modify 4 every 10000
#---------------------------------------------------
dump            d2 all cfg 1000 cfg/run.strain.*.cfg mass type xs ys zs id type vx vy vz fx fy fz
dump_modify     d2 element Zr H
#---------------------------------------------------

variable  srate equal 5.0e10
variable srate1 equal "v_srate / 1.0e12"

#-------------------- Run the simulation -------------------------------------------------
fix 1 all deform 1 x erate ${srate1} units box remap x
fix 2 all npt temp 800 800 1 y 0 0 1 z 0 0 1 drag 1

run 300000 

print "All done !"
#-------------------- End ----------------------------------------------------------------