#5. Diffusion of hydrogen in zirconium as discussed in Chapter 6
#Methodology
# Complex problems like diffusion of hydrogen in zirconium is calculated for 
# various temperatures and coefficients are calculated using Einstein diffusion equation. 
# The method used here is hydrogen atoms are randomly distributed and energy immixed. 
# The script equilibrates and calculates the mean square displacement at desired temperatures. 
# Timestep of 0.0005 psec is used. MSD without drifts (drifts in center of mass) are 
# removed and displacement along 3 directions are dumped in file 500.txt.Maximum runs are done for 
# 40000 psec to test the variation in slopes. Average RDF calculations are done on 
# zirconium to test the structure.
#-----------------------------------------------------------------------------------------
# LAMMPS 64-bit 22Dec2022-MSMPI
clear
#log msd.out
#-------------------- Environment Settings -----------------------------------------------
variable      Tdesird equal  500.0 # Desired Temperature [K]

variable Equil_Nsteps equal  20000 # Number of simulation cycles (NPT)

variable       Nsteps equal  40000 # Number of simulation cycles (MSD)

variable     DumpFreq equal   1000 # For print out

variable        dt_ps equal 0.0005 # (Note: Atoms are lost at 0.001 [ps].)

#-------------------- Initialization -----------------------------------------------------
units metal
dimension 3
boundary p p p

#-------------------- Atom & Lattice description ----------------------------------------
atom_style atomic

lattice hcp 3.232

region box block 0 16 0 10 0 10
create_box 2 box # set 2 types (Zr and H)

create_atoms 1 box
create_atoms 2 random 100 878567 box # set H 100 atoms, randomly.

group       zr type 1 # Zr
group hydrogen type 2 # H

mass 1 91.224 # Zr
mass 2 1.0079 # H

#-------------------- Force field --------------------------------------------------------
pair_style meam
pair_coeff * * library.meam Zr H ZrH.meam Zr H

#-------------------- Settings -----------------------------------------------------------
neighbor 2 bin
neigh_modify delay 10 check yes

thermo ${DumpFreq}
thermo_style custom step pe lx ly lz press pxx pyy pzz vol etotal

#-------------------- Energy minimization and pressure minimization ----------------------

fix 1 all nve/limit 0.1
minimize 1.0e-6 1.0e-6 10000 10000
unfix 1

#-------------------- (cells are also relaxed)
fix 1 all box/relax aniso 0.0 vmax 0.1
minimize 1.0e-6 1.0e-6 10000 10000
unfix 1

#-------------------- Equilibration at desired temperature -------------------------------
reset_timestep 0

timestep ${dt_ps}

thermo ${DumpFreq}
thermo_style custom step lx ly lz press pxx pyy pzz pe temp

#---------- output file settings -------------------
dump            d1 all cfg ${DumpFreq} cfg/run.equil.*.cfg mass type xs ys zs id type vx vy vz fx fy fz
dump_modify     d1 element Zr H
#---------------------------------------------------

velocity all create ${Tdesird} 12345 mom yes rot no

fix 1 all npt temp  ${Tdesird} ${Tdesird} $(100*dt) iso 0.0 0.0 $(1000*dt) drag 1

run ${Equil_Nsteps}

unfix 1

#-------------------- Average MSD calculations and average time at 500 K -----------------
reset_timestep 0

thermo 1000
thermo_style custom step temp pe press vol etotal

compute 5 zr msd
compute 6 hydrogen msd com yes

fix 1 all nvt temp ${Tdesird} ${Tdesird} $(100*dt)
fix 3 hydrogen ave/time 1 1 100 c_6[1] c_6[2] c_6[3] c_6[4] c_5[4] file msd${Tdesird}K.txt
# c_6[1], c_6[2], c_6[3], c_6[4], c_5[4] => MSD_H(x), MSD_H(y), MSD_H(z), MSD_H(total), MSD_Zr(total)

run ${Nsteps}

unfix 1
unfix 3

#-------------------- calculates the radial distribution function (RDF) ------------------

#compute 5k zr rdf 50 1 1 # 1:Zr-1:Zr
#fix 4 all ave/time 100 1 100 c_5k file tmp5.rdf mode vector

# calculates the radial distribution function (RDF) and output file
compute 11 all rdf 100
fix 4 all ave/time 100 1 100 c_11[*] file data.rdf mode vector

run 1000

unfix 4

print "All done !"
#-------------------- End ----------------------------------------------------------------