# Crack Simulations folder contains calculations for MEAM
#-----------------------------------------------------------------------------------------
# LAMMPS 64-bit 22Dec2022-MSMPI
clear
#log 300.out
#-------------------- Initialization -----------------------------------------------------
units metal
boundary s s p

#-------------------- Atom & Lattice description ----------------------------------------
atom_style atomic

lattice hcp 3.23
region box block 0 100 0 40 0 3

create_box 3 box
create_atoms 1 box

neighbor 2.0 bin
neigh_modify delay 10 check yes

# define groups
region 1 block INF INF INF 1.25 INF INF
group lower region 1

region 2 block INF INF 38.75 INF INF INF
group upper region 2

group boundary union lower upper
group mobile subtract all boundary

set group upper type 2
set group lower type 3

mass 1 91.224 # Zr
mass 2 91.224 # Zr
mass 3 91.224 # Zr

#-------------------- Force field --------------------------------------------------------
pair_style meam
pair_coeff * * meam Zr H ZrH.meam Zr Zr Zr

#-------------------- Settings -----------------------------------------------------------
dump 2 all custom 1000 zr.dump id type x y z
dump_modify 2 every 1000

#-------------------- minimization parameters --------------------------------------------
fix 1 all nve/limit 0.1
minimize 1.0e-30 1.0e-30 100000 1000000
unfix 1

undump 2

#-------------------- calculates the mean-squared displacement (MSD) ---------------------
reset_timestep 0

timestep 0.001 # 1 [fs]

compute 1 hydrogen msd
compute 2 zr msd

thermo 1000
thermo_style custom step etotal ke temp pe press vol c_1[1] c_1[2] c_1[3] c_1[4] c_2[1] c_2[2] c_2[3] c_2[4]

dump 2 all custom 10000 msd.dump id type xu yu zu ix iy iz
dump_modify 2 every 1000

velocity all create 600.0 4928459 rot yes dist gaussian

fix 1 all nvt temp 600.0 600.0 100.0

run 700000

unfix 1

undump 2

#-------------------- initial velocities and equilibration -------------------------------
timestep 0.0001 # 0.1 [fs]

compute new3d mobile temp
compute new2d mobile temp/partial 1 0 1

thermo 50
thermo_modify temp new3d

velocity mobile create 0.01 887723 temp new3d

fix 1 all nve
fix 2 boundary setforce NULL 0.0 NULL
fix 3 mobile temp/rescale 10 0.01 0.01 10.0 1.0
fix_modify 3 temp new3d

run 1000

#-------------------- Deformation --------------------------------------------------------
neigh_modify delay 5

compute p all stress/atom

minimize 1.0e-6 1.0e-6 10000 100000

unfix 3

#-------------------- Deformation --------------------------------------------------------
reset_timestep 0

thermo 1000
thermo_modify temp new2d

dump 3 all custom 1000 crack.dump id type x y z c_p[1] c_p[2] c_p[3]
dump_modify 3 every 10000

velocity upper set 0.0 0.8 0.0
velocity mobile ramp vy 0.0 0.8 y 1.25 38.75 sum yes

fix 3 mobile temp/rescale 10 0.01 0.01 10.0 1.0
fix_modify 3 temp new2d

run 500000

#-------------------- End ----------------------------------------------------------------