# 7. Energy111 folder contains calculations for reorientation energy as discussed in Chapter 7
#Methodology
# Hydride is oriented along [111] and minimized structure is calculated.
# The structure is then equilibrated at required temperature and different strain rates are 
# tested for stable structure. Strain energy is then calculated along [1 -1 0] and [1 1 1]. 
# The graph for total energy and strain rate with corresponding stresses is plotted. 
# The energy of two directions is compared for lowest energy orientation.
#-----------------------------------------------------------------------------------------
# LAMMPS 64-bit 22Dec2022-MSMPI
clear
#log xenergy.out
#-------------------- Initialization -----------------------------------------------------
units metal
boundary p p p

#-------------------- Atom & Lattice description ----------------------------------------
atom_style atomic

lattice fcc 4.83 orient x 1 -1 0 orient y 1 1 -2 orient z 1 1 1
region box block 0 8.0 0 7.0 0 6.0

create_box 2 box
create_atoms 1 box

lattice sc 2.415 origin 0.5 0.5 0.5 orient x 1 -1 0 orient y 1 1 -2 orient z 1 1 1
create_atoms 2 box

group       zr type 1 # Zr
group hydrogen type 2 # H

mass 1 91.224 # Zr
mass 2 1.0079 # H

#-------------------- Force field --------------------------------------------------------
pair_style meam
pair_coeff * * library.meam Zr H ZrH.meam Zr H

#-------------------- Settings -----------------------------------------------------------
neighbor 2.0 bin
neigh_modify delay 10 check yes

thermo 100
thermo_style custom step lx ly lz press pxx pyy pzz pe temp

#-------------------- Energy minimization and pressure minimization ----------------------

fix 1 all nve/limit 0.1
minimize 1.0e-6 1.0e-6 10000 10000
unfix 1

#-------------------- 

fix 1 all box/relax aniso 0.0 vmax 0.1
minimize 1.0e-6 1.0e-6 10000 10000
unfix 1

#-------------------- Settings -----------------------------------------------------------
reset_timestep 0

timestep 0.0001 # 0.1 [fs]

compute 1 hydrogen msd com yes
compute 2 zr msd

thermo 1000
thermo_style custom step temp pe press vol etotal

velocity all create 623.0 12345 mom yes rot no

#-------------------- Run the simulation (NPT) -------------------------------------------
#-------------------- EQUILIBRATION ------------------------------------------------------

fix 1 all npt temp 623.0 623.0 1 iso 0 0 1 drag 0.5

run 40000

unfix 1

#-------------------- Store final cell length for strain calculations --------------------
variable tmp equal "lz"
variable  L0 equal ${tmp}
print "Initial Length, L0: ${L0}"

#-------------------- Deformation settings -----------------------------------------------
reset_timestep 0

timestep 0.0001 # 0.1 [fs]

# Output strain and stress info to file
# for units metal, pressure is in [bars] = 100 [kPa] = 1/10000 [GPa]
# p1, p2, p3 are in GPa
variable strain equal "(lz - v_L0)/v_L0"
variable p0 equal "v_strain"
variable p1 equal "-pxx/10000"
variable p2 equal "-pyy/10000"
variable p3 equal "-pzz/10000"

thermo 10000
thermo_style custom step etotal ke temp pe press vol v_strain v_p1 v_p2 v_p3

#---------- output file settings -------------------
#dump 3 all custom 10000 xenergy.dump id type xu yu zu ix iy iz
#dump_modify 3 every 10000
#---------------------------------------------------
dump            d1 all cfg 1000 cfg/run.*.cfg mass type xs ys zs id type vx vy vz fx fy fz
dump_modify     d1 element Zr H
#---------------------------------------------------

variable  srate equal 1.0e10
variable srate1 equal "v_srate / 1.0e12"

#-------------------- Run the simulation -------------------------------------------------

fix 1 all deform 1 z erate ${srate1} units box remap x
fix 2 all npt temp 623.0 623. 1 x 0 0 1 y 0 0 1 drag 0.5

run 300000

unfix 1
unfix 2
undump 3

#-------------------- End ----------------------------------------------------------------