# 7. Energy111 folder contains calculations for reorientation energy as discussed in Chapter 7
#Methodology
# Hydride is oriented along [111] and minimized structure is calculated.
# The structure is then equilibrated at required temperature and different strain rates are 
# tested for stable structure. Strain energy is then calculated along [1 -1 0] and [1 1 1]. 
# The graph for total energy and strain rate with corresponding stresses is plotted. 
# The energy of two directions is compared for lowest energy orientation.
#-----------------------------------------------------------------------------------------
# LAMMPS 64-bit 22Dec2022-MSMPI
clear
#log xenergy.out
#-------------------- Environment Settings -----------------------------------------------
variable       Tdesird equal  623.0 # Desired Temperature [K]

variable  Equil_Nsteps equal  40000 # Number of simulation cycles (NPT)

variable        Nsteps equal  50000 # Number of simulation cycles (strain)

variable      DumpFreq equal   1000 # For print out

variable         dt_ps equal 0.0005 # (Note: Atoms are lost at 0.001 [ps].)

variable  es_rate equal   0.01 # engineering strain rate (1/time units)
# Note: es_rate/dt_ps = 0.01 / (1e-15) = 1.0e13 [1/s]
# L(t) = L(0)*(1 + es_rate*dt*step)
# strain [%] = es_rate*dt*Nstep*100 [%] = 0.01 * 0.0005 * 50000 * 100 = 25 [%]
#-------------------- Initialization -----------------------------------------------------
units metal
dimension 3
boundary p p p

#-------------------- Atom & Lattice description ----------------------------------------
atom_style atomic

lattice fcc 4.83 orient x 1 -1 0 orient y 1 1 -2 orient z 1 1 1
region box block 0 8.0 0 7.0 0 6.0
create_box 2 box
create_atoms 1 box

lattice sc 2.415 origin 0.5 0.5 0.5 orient x 1 -1 0 orient y 1 1 -2 orient z 1 1 1
create_atoms 2 box

group       zr type 1 # Zr
group hydrogen type 2 # H

mass 1 91.224 # Zr
mass 2 1.0079 # H

#-------------------- Force field --------------------------------------------------------
pair_style meam
pair_coeff * * library.meam Zr H ZrH.meam Zr H

#-------------------- Settings -----------------------------------------------------------
neighbor 2.0 bin
neigh_modify delay 10 check yes

thermo 1000
thermo_style custom step lx ly lz press pxx pyy pzz pe temp

#-------------------- Energy minimization and pressure minimization ----------------------

fix 1 all nve/limit 0.1
minimize 1.0e-6 1.0e-6 10000 10000
unfix 1

#-------------------- (cells are also relaxed)
fix 1 all box/relax aniso 0.0 vmax 0.1
minimize 1.0e-6 1.0e-6 10000 10000
unfix 1

#-------------------- Settings -----------------------------------------------------------
reset_timestep 0

timestep ${dt_ps}

thermo ${DumpFreq}
thermo_style custom step temp pe press vol etotal

velocity all create ${Tdesird} 12345 mom yes rot no

#-------------------- Run the simulation (NPT) -------------------------------------------
#-------------------- EQUILIBRATION ------------------------------------------------------

fix 1 all npt temp ${Tdesird} ${Tdesird} $(100*dt) iso 0 0 $(1000*dt) drag 0.5

run ${Equil_Nsteps}

unfix 1

#-------------------- Store final cell length for strain calculations --------------------
variable tmp equal "lz"
variable  L0 equal ${tmp}
print "Initial Length, L0: ${L0}"

#-------------------- Deformation settings -----------------------------------------------
reset_timestep 0

# Output strain and stress info to file
# for units metal, pressure is in [bars] = 100 [kPa] = 1/10000 [GPa]
# p1, p2, p3 are in GPa
variable strain equal "(lz - v_L0)/v_L0"
variable p0 equal "v_strain"
variable p1 equal "-pxx/10000"
variable p2 equal "-pyy/10000"
variable p3 equal "-pzz/10000"

thermo ${DumpFreq}
thermo_style custom step etotal ke temp pe press vol v_strain v_p1 v_p2 v_p3

compute 1 all stress/atom NULL  # computes the symmetric per-atom stress tensor for each atom in a group.
compute 2 all temp              # computes the temp of a group of atoms
compute 3 all reduce sum c_1[3] # reduces vector quantities of all stress tensors in z-direction and adds all the quantities to a single scalar value
compute kea all ke/atom         # This is related to temperature

variable stress     equal c_3/vol        # assigns a value to the variable name stress
variable stress_GPa equal v_stress/10000 # converts the stress calculated to GPa

#---------- output file settings -------------------
fix fo1 all ave/time 1 3 3 c_2 v_strain v_stress v_stress_GPa v_p3 file stress_vs_strain.txt
#---------------------------------------------------
dump            d1 all cfg ${DumpFreq} cfg/run.*.cfg mass type xs ys zs id type vx vy vz fx fy fz c_kea
dump_modify     d1 element Zr H
#---------------------------------------------------

#-------------------- Run the simulation -------------------------------------------------

fix 1 all deform 1 z erate ${es_rate} units box remap x
fix 2 all npt temp ${Tdesird} ${Tdesird} $(100*dt) x 0 0 $(1000*dt) y 0 0 $(1000*dt) drag 0.5

run ${Nsteps}

unfix 1
unfix 2
undump d1

print "All done !"

#-------------------- End ----------------------------------------------------------------