#-----------------------------------------------------------------------------------------
# Vashishta potential handles electric charge internally. Therefore, 
# when handling electric charge with atom_style, it is necessary to set 
# the electric charge in the potential file to 0 and input Coulomb force 
# with hybrid. Although atom_style charge is fine in the settings here, 
# we decided to write atom_style atomic to avoid misunderstanding, 
# unlike the original paper.
#-----------------------------------------------------------------------------------------
# LAMMPS 64-bit 22Dec2022-MSMPI
#-----------------------------------------------------------------------------------------

units metal
#atom_style charge
atom_style atomic
dimension 3
boundary p p p

#read_data data.alum

lattice fcc 4.03893 # orient x 1 0 0 orient y 0 1 0 orient z 0 0 1 
region box block 0 1 0 1 0 1 units lattice
create_box 1 box
create_atoms 1 box

replicate 15 15 4

mass 1 27

pair_style vashishta
pair_coeff * * Vashishta56.dat Al

variable T equal 300 # 300 [K]
variable V equal vol
variable dt equal 0.0001 # 0.1 [fs]

neighbor 1.0 nsq
neigh_modify every 1 delay 0 check yes

timestep ${dt}

thermo 1000
thermo_style custom step temp press vol spcpu etotal pe
thermo_modify norm yes

dump d1 all cfg 1000 cfg/run.*.cfg mass type xs ys zs id type vx vy vz fx fy fz
dump_modify d1 element Al

velocity all create $T 42128

fix 2 all nvt temp $T $T 0.01

run 100000

#-----------------------------------------------------------------------------------------
