# After creating simulation box with Fe atoms filled inside it we go for 
# calculating MSD value running the code given below:
# msd calculation in Fe crystal at 50 k file
#-----------------------------------------------------------------------------------------
# LAMMPS 64-bit 22Dec2022-MSMPI
clear
#-------------------- Initialization -----------------------------------------------------
units metal
boundary p p p

#-------------------- Read structure file ------------------------------------------------
atom_style atomic

read_data Fe50k_void_data.txt

group Fe type 1

#-------------------- Force field --------------------------------------------------------
pair_style eam/fs
pair_coeff * * Fe_2.eam.fs Fe 

#-------------------- Energy Minimization ------------------------------------------------
# 0 [K], structure optimization
minimize 1.0e-4 1.0e-6 10000 1000000

#-------------------- Settings -----------------------------------------------------------
reset_timestep 0

timestep 0.002 # 2 [fs]

# MSD Calculation
#--------------------------------------
compute mymsdFe Fe msd com yes
#--------------------------------------
variable msdxFe   equal "c_mymsdFe[1]"
variable msdyFe   equal "c_mymsdFe[2]"
variable msdzFe   equal "c_mymsdFe[3]"
variable msdtotFe equal "c_mymsdFe[4]"
#--------------------------------------
fix msdT1 Fe ave/time 1 1 2500 v_msdxFe v_msdyFe v_msdzFe v_msdtotFe file msdFe50K
#--------------------------------------

thermo 300
thermo_style custom step temp press vol pe ke etotal c_mymsdFe[4]

#---------- output file settings -------------------
#dump 1 all atom 1000 dump.Fe_msd_50K_11643_3d.dump.lammpstrj
#------------------------------------------------------------
dump 2 all cfg 1000 cfg/run.*.cfg mass type xs ys zs id type xs ys zs vx vy vz fx fy fz
dump_modify 2 element Fe
#------------------------------------------------------------
#log logFe_msd_50k_11643.data

velocity all create 50 5812775 rot yes mom yes dist gaussian

#-------------------- Run the simulation -------------------------------------------------

fix 1 all npt temp 50.0 50.0 0.2 iso -1000.0 -1000.0 0.2 

run 50000

print "Simulation is about to finish"
print "All done"

#-------------------- End ----------------------------------------------------------------