# Input file for Vacancy Formation Energy

# --------------- INITIALIZATION ------------------
clear
units 		metal
dimension	3
boundary	p	p    p      
atom_style	atomic
# ------------------ ATOM DEFINITION -------------------
variable ao equal 3.52

lattice         fcc 3.52
region		simbox block -4 4 -4 4 -4 4

create_box	1 simbox

lattice 	fcc 3.52  orient x 1 0 0 orient y 0 1 0 orient z 0 0 1
create_atoms	1 region simbox
 
# ------------------------ FORCE FIELDS -----------------------
pair_style	eam/alloy
pair_coeff * * FeNiCrCoCu-heafixed.setfl Ni
#---------------------------Settings----------------------------
compute csym all centro/atom fcc
compute eng all pe/atom 
compute eatoms all reduce sum c_eng

#----------------------Run Minimization-------------------------
reset_timestep	0

thermo 10
thermo_style custom step pe lx ly lz press pxx pyy pzz c_eatoms 

dump 1 all custom 400 ./cfg/dump.relax.1.*.cfg id type xs ys zs c_csym c_eng 

min_style cg
minimize 1e-15 1e-15 5000 5000

run 0
undump 1

#variable N equal count(all), counts the total number of atoms in the cell
#the total number of atoms is stored to the variable N

variable N equal count(all)
variable No equal $N

#variable Ei equal "c_eatoms" computes the initial energy of the cell system before the vacancy
#E is needed to store the initial energy of the system to the variable Ei

variable E equal "c_eatoms"
variable Ei equal $E

#---------------------------------------------------------------
variable r2 equal sqrt(${ao}^2+${ao}^2)/4
#r2 is the radius of the nickel atom

#region select is a region defined so that all atoms within this region are removed
region select sphere 0 0 0 ${r2} units box
delete_atoms region select compress yes

#---------------------------------------------------------------------

reset_timestep	0

thermo 10
thermo_style custom step pe lx ly lz press pxx pyy pzz c_eatoms 

dump 1 all custom 2 ./cfg/dump.atom.cfg id type xs ys zs c_csym c_eng 


min_style cg
minimize 1e-15 1e-15 5000 5000

#variable Ef equal "c_eatoms" computes the final energy of the cell system after the vacancy
#The final energy is stored to the variable Ef 

variable Ef equal "c_eatoms"
variable Ev equal (${Ef}-((${No}-1)/${No})*${Ei})

#---------------------------------------------

######################################
# SIMULATION DONE
print "All done"
print "Total number of atoms = ${No}"
print "Initial energy of atoms = ${Ei}"
print "Final energy of atoms = ${Ef}"
print "Vacancy formation energy = ${Ev}"
