units metal
atom_style atomic

read_data XXXXXXXXXX

pair_style meam
pair_coeff * * library.meam XX XX.meam XX

thermo 10
thermo_style custom step pe etotal lx ly lz vol press pxx pyy pzz

variable  natoms equal "count(all)" 
variable      x0 equal "lx"
variable      y0 equal "ly"
variable      z0 equal "lz"
variable      v0 equal "vol"
variable   etot0 equal "etotal"
variable   ecoh0 equal "-pe/v_natoms"
variable   area0 equal "v_v0/v_z0"

run 1

print "The lattice constant, x (Angstoms) = ${x0}"
print "The lattice constant, y (Angstoms) = ${y0}"
print "The lattice constant, z (Angstoms) = ${z0}"
print "The volume (Angstoms^3) = ${v0}"
print "The area (Angstoms^2) = ${area0}"
print "The total energy (eV) = ${etot0}"
print "The cohesive energy (eV/atom) = ${ecoh0}"
print "The number of atoms = ${natoms}"
