# The subsequent script attains the ground structure of the alloy by
#  employing Conjugate Gradient minimization of forces and energies. 
# From the resultant system, one can derive both the cohesive energy and
#  lattice parameters.


# --- Initialize Simulation ---
units metal
dimension 3
boundary p p p
atom_style atomic
atom_modify map array

# --- Define minimization parameters ---
variable etol equal 0.0 
variable ftol equal 1.0e-10
variable maxiter equal 5000
variable maxeval equal 5000
variable dmax equal 1.0e-2

# --- Create Atoms ---
# generate the box and atom positions using a bcc lattice
variable a equal 2.84

# Fe atoms
lattice custom 1 a1 $a 0 0 a2 0 $a 0 a3 0 0 $a &
 basis 0 0 0
region supercell block 0 1 0 1 0 1 units lattice
create_box 3 supercell
create_atoms 1 region supercell

# Co atoms
lattice custom 1 a1 $a 0 0 a2 0 $a 0 a3 0 0 $a &
 basis 0.5 0.5 0.5
create_atoms 3 region supercell
variable b equal 3
replicate $b $b $b

# --- Interatomic Potential ---
pair_style meam
pair_coeff * * library.meam Fe Co PotentialFile.meam Fe Co

# --- Define Settings ---
compute eng all pe/atom
compute eatoms all reduce sum c_eng

# --- Minimize ---
reset_timestep 0
change_box all triclinic

#fix 1 all box/relax aniso 0.0
fix 1 all box/relax tri 0.0 vmax 0.001

thermo 1000
thermo_style custom step pe lx ly lz xy xz yz press c_eatoms

min_style cg
dump 1 all custom 1000 visual.xyz id type x y z
minimize ${etol} ${ftol} ${maxiter} ${maxeval}

# --- Energies ---
variable natoms equal "count(all)"
variable teng equal "c_eatoms"
variable ecoh equal "v_teng/v_natoms"
variable xleng equal "lx/v_b"
variable yleng equal "ly/v_b"
variable zleng equal "lz/v_b"

# --- Export to screen ---
print "====================="
print "FeCo-B2 Properties"
print "Cohesive Energy = ${ecoh} eV/atom"
print "a lattice = ${xleng} Ang"
print "b lattice = ${yleng} Ang"
print "c lattice = ${zleng} Ang"
