# Crack Interface folder contains calculations for MEAM

log l.out
units metal
boundary p p p
atom_style atomic
pair_style meam
read_data ihcpl.in
pair_coeff * * meamf ZrN Hz ZrH2.meam ZrN Hz

neighbor 2 bin
neigh_modify delay 10 check yes

group zr type 1
group hydrogen type 2
compute eng all pe/atom
compute eatoms all reduce sum c_eng

fix 1 all nve/limit 0.1
minimize 1.00e-30 1.00e-30 100000 1000000
unfix 1

# ---------- Run Minimization ---------------------
reset_timestep 0
fix 1 all box/relax aniso 0.0 vmax 0.1
thermo_style custom step pe lx ly lz press pxx pyy pzz c_eatoms 
min_style cg
minimize 1e-30 1e-30 1000000 10000000
unfix 1
variable natoms equal "count(all)"
variable teng equal "c_eatoms"
variable length equal "lx"
variable ecoh equal "v_teng/v_natoms"

print "Total energy (eV) = ${teng};"
print "Number of atoms = ${natoms};"
print "Lattice constant (Angstoms) = ${length};"
print "Cohesive energy (eV) = ${ecoh};"

print "All done!"

######################################
# EQUILIBRATION
reset_timestep 0
timestep 0.0001
velocity all create 800 12345 mom yes rot no
fix 1 all npt temp 800 800 1 aniso 0 0 1 drag 0.5 
# Set thermo output
thermo 10000
thermo_style custom step lx ly lz press pxx pyy pzz pe temp vol ke etotal 
run 120000
unfix 1

# Store final cell length for strain calculations
variable tmp equal "lx"
variable L0 equal ${tmp}
print "Initial Length, L0: ${L0}"
reset_timestep 0
timestep 0.0001
fix 1 all npt temp 800 800 1 y 0 0 1 z 0 0 1 drag 1
variable srate equal 1.0e10
variable srate1 equal "v_srate / 1.0e12"
fix 2 all deform 1 x erate 0.05 units box remap x
# Output strain and stress info to file
# for units metal, pressure is in [bars] = 100 [kPa] = 1/10000 [GPa]
# p2, p3, p4 are in GPa
variable strain equal "(lx - v_L0)/v_L0"
variable p1 equal "v_strain"
variable p2 equal "-pxx/10000"
variable p3 equal "-pyy/10000"
variable p4 equal "-pzz/10000"
dump 4 all custom 1000 Interface.dump id type xu yu zu ix iy iz
dump_modify 4 every 10000

# Display thermo
thermo 10000
thermo_style custom step v_strain temp v_p2 v_p3 v_p4 ke pe press vol
run 300000 
unfix 1
unfix 2
