# Diffusion of hydrogen in zirconium

#-------------------- Initialization -----------------------------------------------------
clear
log msd.out

units metal
boundary p p p

#-------------------- Atom & Lattice description ----------------------------------------
atom_style atomic

lattice hcp 3.232
region box block 0 16 0 10 0 10

create_box 2 box
create_atoms 1 box
create_atoms 2 random 100 878567 box

group       zr type 1 # Zr
group hydrogen type 2 # H

mass 1 91.224 # Zr
mass 2 1.0079 # H

#-------------------- Force field --------------------------------------------------------
pair_style meam
pair_coeff * * meam Zr H ZrH.meam Zr H

#-------------------- Settings -----------------------------------------------------------
neighbor 2 bin
neigh_modify delay 10 check yes

#-------------------- Energy minimization and pressure minimization
thermo 1000
thermo_style custom step pe lx ly lz press pxx pyy pzz vol etotal
fix 1 all nve/limit 0.1
minimize 1.00e-30 1.00e-30 100000 1000000
unfix 1

thermo_style custom step pe lx ly lz press pxx pyy pzz vol etotal
fix 1 all box/relax aniso 0.0 vmax 0.1
minimize 1.0e-30 1.0e-30 100000 1000000
unfix 1

#-------------------- Equilibration at desired temperature
timestep 0.0001
velocity all create 500 12345 mom yes rot no
thermo 1000
thermo_style custom step lx ly lz press pxx pyy pzz pe temp
fix 1 all npt temp 500 500 1 iso 0 0 1 drag 1
run 250000
unfix 1

#-------------------- Average MSD calculations and average time at 500K
reset_timestep 0
timestep 0.0001
compute 5 hydrogen msd com yes
compute 6 zr msd
thermo 10000
thermo_style custom step temp pe press vol etotal
fix 1 all nvt temp 500 500 100.0
fix 3 hydrogen ave/time 10 5 1000 c_5[1] c_5[2] c_5[3] c_5[4] c_6[4] file 500.txt
run 10000000
unfix 1
unfix 3

#-------------------- calculates the radial distribution function (RDF)
compute 5k zr rdf 50 1 1
fix 1 all ave/time 100 1 100 c_5k file tmp5.rdf mode vector
run 10000
unfix 1
#-------------------- End ----------------------------------------------------------------