# Energy111 folder contains calculations for reorientation energy 

log xenergy.out

units metal
boundary p p p
atom_style atomic

lattice fcc 4.83 orient x 1 -1 0 orient y 1 1 -2 orient z 1 1 1
region box block 0 8.0 0 7.0 0 6.0
create_box 2 box
create_atoms 1 box
lattice sc 2.415 origin 0.5 0.5 0.5 orient x 1 -1 0 orient y 1 1 -2 orient z 1 1 1
create_atoms 2 box

group zr type 1
group hydrogen type 2

mass 1 91.224 # Zr
mass 2 1.0079 # H

pair_style meam
pair_coeff * * meam Zr H ZrH.meam Zr H

neighbor 2.0 bin
neigh_modify delay 10 check yes

fix 1 all nve/limit 0.1
thermo_style custom step lx ly lz press pxx pyy pzz pe temp
minimize 1.00e-30 1.00e-30 100000 1000000
unfix 1

reset_timestep 0
fix 1 all box/relax aniso 0.0 vmax 0.1
thermo_style custom step lx ly lz press pxx pyy pzz pe temp
minimize 1.0e-30 1.0e-30 100000 1000000
unfix 1

timestep 0.0001
velocity all create 623. 12345 mom yes rot no
compute 1 hydrogen msd com yes
compute 2 zr msd
fix 1 all npt temp 623. 623. 1 iso 0 0 1 drag 0.5
thermo 10000
thermo_style custom step temp pe press vol etotal
run 1000000
unfix 1

thermo_style custom step lx ly lz press pxx pyy pzz pe temp
run 1

# Store final cell length for strain calculations
variable tmp equal "lz"
variable L0 equal ${tmp}
print "Initial Length, L0: ${L0}"

######################################
# DEFORMATION
reset_timestep 0
fix 1 all npt temp 623.0 623. 1 y 0 0 1 x 0 0 1 drag 0.5
variable srate equal 1.0e10
variable srate1 equal "v_srate / 1.0e12"
fix 2 all deform 1 z erate 0.01 units box remap x
# Output strain and stress info to file
# for units metal, pressure is in [bars] = 100 [kPa] = 1/10000 [GPa]
# p2, p3, p4 are in GPa
variable strain equal "(lz - v_L0)/v_L0"
variable p1 equal "v_strain"
variable p2 equal "-pxx/10000"
variable p3 equal "-pyy/10000"
variable p4 equal "-pzz/10000"
dump 3 all custom 10000 xenergy.dump id type xu yu zu ix iy iz
dump_modify 3 every 10000

Display thermo
thermo 10000
thermo_style custom step etotal ke temp pe press vol v_strain v_p2 v_p3 v_p4
timestep 0.0001
run 300000
unfix 1
unfix 2
undump 3