# A.1 LAMMPS code

# The next example LAMMPS submission file is of a calculation of the temperature profile
# across a Van der Waals bonded (100) beta-Ga2O3 to (100) diamond heterojunction. Similar files
# were used to estimate the thermal boundary resistance across Ga2O3-material interfaces for
# different Ga2O3 crystallographic orientations. The materials considered for interfaces with
# beta-Ga2O3 included (100) diamond, amorphous Al2O3 and amorphous Ga2O3.

units metal
boundary s s s
atom_style charge
lattice custom 1.0 &
  a1 12.2299995422 0.0000000000 0.0000000000 &
  a2 0.0000000000 3.0399999619 0.0000000000 &
  a3 -1.3736609922 0.0000000000 5.6349851545 &
  basis 0.090399995 0.000000000 0.794799939 &
  basis 0.909599983 0.000000000 0.205199986 &
  basis 0.590399966 0.500000000 0.794799939 &
  basis 0.409599983 0.500000000 0.205199986 &
  basis 0.341399978 0.000000000 0.685699987 &
  basis 0.658599936 0.000000000 0.314299981 &
  basis 0.841400056 0.500000000 0.685699987 &
  basis 0.158599995 0.500000000 0.314299981 &
  basis 0.167400004 0.000000000 0.101099994 &
  basis 0.832599951 0.000000000 0.898899984 &
  basis 0.667400043 0.500000000 0.101099994 &
  basis 0.332599990 0.500000000 0.898899984 &
  basis 0.495700006 -0.000000000 0.255299985 &
  basis 0.504299988 0.000000000 0.744700003 &
  basis 0.995699967 0.500000000 0.255299985 &
  basis 0.004299993 0.500000000 0.744700003 &
  basis 0.827900015 0.000000000 0.436500000 &
  basis 0.172100006 0.000000000 0.563499967 &
  basis 0.327899937 0.500000000 0.436500000 &
  basis 0.672100016 0.500000000 0.563499967
  
region main block -9.89 9.88 -10 10 -5 5
region gao block 0.01 9.88 -10 10 -5 5
region dia1 block -9.89 -0.02 -10 10 -5 5
region cold block -9.88 -9.48 -10 10 -5 5
region hot block 9.48 9.88 -10 10 -5 5

create_box 3 main

mass 1 69.723
mass 2 15.999
mass 3 12.0107

create_atoms 2 region gao &
  basis 1 1 &
  basis 2 1 &
  basis 3 1 &
  basis 4 1 &
  basis 5 1 &
  basis 6 1 &
  basis 7 1 &
  basis 8 1 &
  basis 9 2 &
  basis 10 2 &
  basis 11 2 &
  basis 12 2 &
  basis 13 2 &
  basis 14 2 &
  basis 15 2 &
  basis 16 2 &
  basis 17 2 &
  basis 18 2 &
  basis 19 2 &
  basis 20 2

lattice diamond 3.567

create_atoms 3 region dia1

set type 1 charge  3 #2.67
set type 2 charge -2 #-2.51

pair_style hybrid meam/c born/coul/dsf/cs 0.2 10.0 lj/cut 10.0
pair_coeff 1 3 lj/cut 0.00226302317 4.10839786291
pair_coeff 2 3 lj/cut 0.00086047202 3.67130766894
pair_coeff 1 1 born/coul/dsf/cs 0.0 16.0 0.0 0.0 0.0
pair_coeff * * meam/c library1.meam C SiC.meam NULL NULL C
pair_coeff 1 2 born/coul/dsf/cs 907.89 0.345 0.0 10.0 0.0
pair_coeff 2 2 born/coul/dsf/cs 22764.0 0.149 0.0 0.0 0.0

timestep 0.001

compute Thot all temp/region hot
compute Tcold all temp/region cold

#equilibration

thermo 1
minimize 1.0e-10 1.0e-10 100000 100000

reset_timestep 0

dump start all xyz 80000 start.xyz

velocity all create 300.0 4928459 dist gaussian

fix 1 all nvt temp 300 300 0.002

run 100000

unfix 1

#in.heat conductivity calculation part1

fix 1 all nve

fix hot all heat 1 1.0 region hot

fix cold all heat 1 -1.0 region cold

thermo_style custom step temp c_Tcold c_Thot
thermo 1000

run 600000

#actual calculation

compute ke all ke/atom

variable temp atom c_ke/1.5

dump end all xyz 8000 end.xyz

compute layers all chunk/atom bin/1d x lower 0.01 units reduced

fix 2 all ave/chunk 10 100 1000 layers v_temp temp file profile.heat

run 10000
