 O Zr  H  C 
 1.0000000000000000
    14.8300000000000001    0.0000000000000000    0.0000000000000000
     7.4150000000000018   12.8431567381232252    0.0000000000000000
     7.4150000000000018    4.2810522460410754   12.1086442951581752
  32   6  28  48
Cartesian
  9.4823453997215594 11.0391522567550524  3.5497264458790871
 19.2567840578215588  5.5270030360550528 11.6256237051790876
 12.2844068531215598 12.7463367696550520  1.3308854236790868
 22.0546412882215570  7.0475761217550517  9.2687725336790869
 10.8197632453215586  4.6984668928550528  9.2625593281790870
 20.6974212703215592 10.2983006363550533  1.3283270378790872
 10.9309254677215595  7.8678089021550530 11.5819228715790885
 20.5937001078215580 13.5440280851550536  3.5623177711790870
 14.3161210833215584  4.2453724584550532  1.3364028199790869
 14.4243902185215589 15.5623915064550555  9.2605028890790884
 17.2023840998215611  2.6722920234550527  3.5559620908790874
 17.1433420023215568 13.9257208444550553 11.5621754232790863
 14.3155108433215581  2.6771631724550531  3.5527588864790873
 14.4257972606215610 13.9207288766550530 11.5769087784790869
 17.2011492657215577  4.2466106666550534  1.3327585119790868
 17.1433709709215591 15.5452740784550532  9.2717751469790883
  9.5043205038215586  7.0517719452550534  9.2652431098790871
 19.2531452934215572 12.7663058535550533  1.3765202849790867
 12.2881883291215601  5.5042593683550525 11.5740893717790883
 22.0280343975215587 11.0357448673550529  3.5494278402790869
 10.8208519045215592 10.3011922031550522  1.3378560156790869
 20.6968283425215596  4.6924143618550529  9.2654646561790877
 10.9289432666215589 13.5392247442550531  3.5564896487790874
 20.5888916826215613  7.8714547102550529 11.5836445908790857
 17.7405082649215586 16.5331078909550513 11.6895404796790885
 23.1722014461215586  7.1236676118550530 11.6898675877790872
 23.1729270273215597 13.3887220011550525  2.8235527985790876
 28.6051298075215605 16.5324928267550533 11.6893527679790878
 14.2782914467215569  1.4051813354550529  0.9960278349790870
  8.3440873340215589 11.6883189456550536  0.9913795607790870
  8.3443591555215590  4.8338771691550528 10.6865783978790887
  2.4094594959215589  1.4048369630550530  0.9945902398790869
 10.1176645050215583 12.3620153541550533  1.8331801603790869
 21.4035228389215568  5.8519499853550538 11.0540457605790863
 10.1214392195215588  5.8503323986550537 11.0507059340790867
 21.4044233260215613 12.3621988952550534  1.8378607300790870
 15.7578935860215594  2.5922259393550533  1.8326713579790868
 15.7681953014215601 15.6289612494550507 11.0472070082790879
 10.4890416098215589  9.6858388032550540  5.3113116291790865
 17.0378000553215578  6.1735836949550542 10.8430697367790891
 14.5019949291215582 12.2380204017550529  2.2092289308790871
 21.0372979214215583  8.2122807888550522  7.3699723824790864
 12.4059938967215579  4.9594141550550530  7.3872125289790871
 19.1505107442215596  8.6107517820550523  2.2105966368790870
 12.6106477567215585  9.4793086466550527 10.8082712179790867
 18.8997428403215615 13.3709647529550537  5.3209232770790864
 13.6552676946215605  6.4361366747550530  2.2080053182790871
 13.8790894696215581 14.0870192788550508  7.3772543846790866
 17.8822746317215611  4.2276242551550531  5.3297423500790861
 17.6523115208215593 11.6597216490550526 10.8287169846790867
 13.6558733238215595  4.2293181443550534  5.3294915662790876
 13.8687578565215581 11.6552339218550536 10.8063006447790890
 17.8919425971215595  6.4347881469550519  2.2123224936790868
 17.6516616000215585 14.0989639424550521  7.3797598567790876
 10.4987403145215588  8.2447562136550534  7.3737865779790868
 17.0182839402215613 12.2456174373550528  2.2294687975790870
 14.5214510159215600  6.1651801022550519 10.8222111401790890
 21.0277465862215571  9.6518392039550527  5.3070257094790874
 12.4066349171215577  8.6201847036550525  2.2093860622790871
 19.1386011756215595  4.9552739717550534  7.3811590434790864
 12.6227726575215584 13.3591573444550527  5.3259493964790865
 18.8988290944215613  9.4749923842550530 10.8299504766790875
 23.1741822507215609 13.3901241766550534  3.7943321353790873
 27.8125114745215605 16.0756370788550527 11.3650412534790881
 18.5316227676215597 16.0734268943550518 11.3652974412790861
 23.1704488319215578  8.0388428366550517 11.3668032522790874
  9.5599290696215586  9.3555428722550520  5.7695913683790865
 16.4717578790215597  5.6323127149550523 11.5975336002790890
 15.0678022740215596 12.7808598960550537  1.4557889294790867
 21.9670750790215585  8.5396059073550532  6.9103720211790867
 12.2128757725215600  3.9930591654550529  6.9268543257790869
 19.3341265234215598  7.8574219787550525  1.4479443587790870
 12.4275915746215588 10.2319747780550525 11.5717201281790878
 19.0923255639215590 14.3369437734550527  5.7818294636790872
 12.9048552315215588  6.6534762901550533  1.4514069092790871
 13.1313533580215598 14.7318173445550524  6.9211593573790866
 18.6309446715215579  3.5833524608550533  5.7849840349790869
 18.4012945050215571 11.4417700133550522 11.5863077572790871
 12.9053589960215582  3.5885166352550524  5.7865028570790864
 13.1254778159215597 11.4392672183550523 11.5703962284790869
 18.6361961994215584  6.6503023983550538  1.4491358043790870
 18.4009258713215580 14.7405119149550554  6.9220956877790867
  9.5654838560215580  8.5583124254550533  6.9120960370790874
 16.4609434422215593 12.7851994987550537  1.4672892386790872
 15.0786381652215589  5.6276163491550530 11.5858707568790891
 21.9615165128215573  9.3367290971550521  5.7671602273790876
 12.2132855014215593  7.8639506803550532  1.4519007442790870
 19.3278611097215567  3.9869931668550525  6.9233974125790878
 12.4344238853215607 14.3280174571550543  5.7827624253790875
 19.0916414781215593 10.2316295485550537 11.5868561825790870
  5.4539024076215590  0.5912352218550527  0.4194831885790871
  8.3620878318215581  7.3517525963550536  8.7637492860790864
  8.3409542144215596 10.6720771683550524  4.0048946269790866
 11.2550472517215585  0.6085756340550530  0.4614582151790869
  3.2601426365215591  4.4113992445550529  0.4233943183790871
 13.4316229458215588  1.8734358003550531  4.0167676709790863
 10.5441625266215588  3.5503719957550528  8.7657586287790856
  6.1696482913215593  9.4466508952550523  0.4187767073790871
  3.2602333845215590  1.8688201412550534  4.0152425252790875
 10.5447596046215590  9.4498482316550518  0.4208476679790869
 13.4293560755215573  4.4121926659550530  0.4266355965790871
  6.1682344303215597  3.5515874899550530  8.7632803446790888
  8.3432345483215595  9.7621269370550525  5.1959624581790864
  9.7582957233215595  0.6415405888550527  0.4785810816790868
  6.9512289702215586  0.6322723689550527  0.4553957468790868
  8.3543715480215592  8.1555514607550528  7.4995319592790866
 11.2555418104215583  3.1454601017550532  7.5102038799790867
  5.4555841807215586  8.1269176085550523  0.4483434210790871
  4.0463536053215599  5.6899831653550539  0.4507314093790868
 12.6507168439215611  2.3312707200550529  5.2112803405790862
 12.6494488927215585  5.6915612963550526  0.4584773126790869
  5.4548175501215592  3.1391373960550526  7.5085257084790866
  4.0472958553215594  2.3238951097550533  5.2101323630790874
 11.2559807791215594  8.1312452294550521  0.4582075049790868
