# 4.2 Creation of Cu-Zr-Al-Ni-Ti glassy alloys
#  4.2.1 Creation of Cu0.179-Zr0.525-Al0.10-Ni0.146-Ti0.05 alloy
#(for size X=50 Angstrom, Y=100 Angstrom, Z=100 Angstrom & cooling rate 10^14 K/s)
# LAMMPS 64-bit 22Dec2022-MSMPI
clear
#-------------------- Environment Settings -----------------------------------------------
variable  Tdesird equal 2300.0 # Desired Temperature [K]

variable Nsteps_h equal  10000 # Number of simulation cycles (heating process)
variable Nsteps_a equal  20000 # Number of simulation cycles (anneling process)
variable Nsteps_c equal  10000 # Number of simulation cycles (cooling process)

variable DumpFreq equal    100 # For print out

variable    dt_ps equal  0.002 # 0.002 [ps] = 2 [fs]

#-------------------- Initialization -----------------------------------------------------
echo both
units metal
dimension 3
boundary p p p

#-------------------- Atom & Lattice description ----------------------------------------
atom_style atomic

region box block 0 50 0 100 0 50 units box
create_box 5 box # set 5 types (5 elements)

lattice fcc 3.61

region cu block 0 50 0 100 0 50 units box

create_atoms 1 region cu units box

# creating composition by using set command for Cu0.179-Zr0.525-Al0.10-Ni0.146-Ti0.05 alloy 
set region cu type/fraction 2 0.525 12393 # set Zr 52.5%, randomly
set region cu type/fraction 3 0.100 12393 # set Al 10.0%, randomly
set region cu type/fraction 4 0.146 12393 # set Ni 14.6%, randomly
set region cu type/fraction 5 0.050 12393 # set Ti  5.0%, randomly

#-------------------- Force field --------------------------------------------------------
pair_style eam/alloy
pair_coeff * * CuZrAlNiTi_Zhou04.eam.alloy Cu Zr Al Ni Ti

#-------------------- Energy Minimization ------------------------------------------------
# 0 [K], structure optimization
minimize 1.0e-4 1.0e-6 10000 100000

#-------------------- Settings -----------------------------------------------------------
reset_timestep 0

timestep ${dt_ps}

thermo ${DumpFreq}
thermo_style custom step temp vol press etotal

velocity all create 300.0 873847 rot yes mom yes dist gaussian

# calculates the radial distribution function (RDF) and output file
compute myRDF all rdf 1000
fix 11 all ave/time 1000 1 1000 c_myRDF[*] file cuzral2.rdf mode vector

#-------------------- Run the simulation -------------------------------------------------
# Heat treatment

# heating proces
#---------------------------------------------------------
dump            d2 all cfg ${DumpFreq} cfg/run.*.cfg mass type xs ys zs id type vx vy vz fx fy fz
dump_modify     d2 element Cu Zr Al Ni Ti
#---------------------------------------------------------
fix 2 all npt temp        300 ${Tdesird} $(100*dt) iso 0.0 0.0 $(1000*dt)
run ${Nsteps_h}
unfix 2
undump d2

# anneling process
#---------------------------------------------------------
dump            d3 all cfg ${DumpFreq} cfg/run.*.cfg mass type xs ys zs id type vx vy vz fx fy fz
dump_modify     d3 element Cu Zr Al Ni Ti
#---------------------------------------------------------
fix 3 all npt temp ${Tdesird} ${Tdesird} $(100*dt) iso 0.0 0.0 $(1000*dt)
run ${Nsteps_a}
unfix 3
undump d3

# cooling process
#---------------------------------------------------------
dump            d4 all cfg ${DumpFreq} cfg/run.*.cfg mass type xs ys zs id type vx vy vz fx fy fz
dump_modify     d4 element Cu Zr Al Ni Ti
#---------------------------------------------------------
fix 4 all npt temp ${Tdesird}        300 $(100*dt) iso 0.0 0.0 $(1000*dt)
run ${Nsteps_c}
unfix 4
undump d4

#--------------------------------------------------------------------------------
# The calculation conditions for this time are as follows.
#--------------------------------------------------------------------------------
variable heating_rate equal "(v_Tdesird - 300) / ( v_dt_ps * v_Nsteps_h ) * 1e-2"
print "heating rate = ${heating_rate} x 10^14 [K/s]"
#--------------------------------------------------------------------------------
print "anneling time = $(v_dt_ps*v_Nsteps_a) [ps]"
#--------------------------------------------------------------------------------
variable cooling_rate equal "(v_Tdesird - 300) / ( v_dt_ps * v_Nsteps_c ) * 1e-2"
print "cooling rate = ${cooling_rate} x 10^14 [K/s]"
#--------------------------------------------------------------------------------

#--------------------------------------------------------------------------------
# Since random numbers are used for arrangement, the composition ratio is #
# slightly different from the specified ratio. Under the conditions calculated this time, 
# the composition ratio is as follows. Also keep in mind that this value will change 
# if you change the random number seed.
#--------------------------------------------------------------------------------
group cu type 1
group zr type 2
group al type 3
group ni type 4
group ti type 5
#----------------------------
variable  ncu equal count(cu)
variable  nzr equal count(zr)
variable  nal equal count(al)
variable  nni equal count(ni)
variable  nti equal count(ti)
#----------------------------
variable ntot equal ${ncu}+${nzr}+${nal}+${nni}+${nti}
#----------------------------
variable nncu equal ${ncu}/${ntot}
variable nnzr equal ${nzr}/${ntot}
variable nnal equal ${nal}/${ntot}
variable nnni equal ${nni}/${ntot}
variable nnti equal ${nti}/${ntot}
#-----------------------------
variable snncu format nncu %05.3f
variable snnzr format nnzr %05.3f
variable snnal format nnal %05.3f
variable snnni format nnni %05.3f
variable snnti format nnti %05.3f
#----------------------------
variable pncu equal ${ncu}/${ntot}*100
variable pnzr equal ${nzr}/${ntot}*100
variable pnal equal ${nal}/${ntot}*100
variable pnni equal ${nni}/${ntot}*100
variable pnti equal ${nti}/${ntot}*100
#-----------------------------
variable spncu format pncu %04.1f
variable spnzr format pnzr %04.1f
variable spnal format pnal %04.1f
variable spnni format pnni %04.1f
variable spnti format pnti %04.1f
#--------------------------------------------------------------------------------
print "Cu: ${snncu}, Zr: ${snnzr}, Al: ${snnal}, Ni: ${snnni}, Ti: ${snnti} [ratio]"
print "Cu: ${spncu}, Zr: ${spnzr}, Al: ${spnal}, Ni: ${spnni}, Ti: ${spnti} [%]"
#--------------------------------------------------------------------------------

#-------------------- Output data file ---------------------------------------------------
write_data Cu17-Zr52-Al10-Ni14-Ti5.data # output data for "4.2.1.4_Tensile_deformation"

#-------------------- End ----------------------------------------------------------------

#-----------------------------------------------------------------------------------------
# Temp difference = 2300 K - 300 K = 2000 K
# Total time taken for cooling = timestep x no of iterations in quenched step = (0.002 x 10000) ps
# So cooling rate = 2000 K / (0.002 x 10000) ps = 10^14 K/s for the above in.file
#-----------------------------------------------------------------------------------------