%mem=3880MW
%chk=CuZr_16ns_20atoms_freq_740
%nprocshared=128
#p bp86/3-21G scf=(maxcycle=500,QC) freq=noraman Temperature=740
Gaussian Test Job 01 pressure=-2467
0 1
40 3.05981440 3.53511600 5.11921300
40 3.64990230 6.59701790 5.53664300
40 6.84985350 6.72763790 5.27235310
40 5.98999020 3.78187400 4.86024300
29 8.03002930 5.23095790 3.55377000
40 9.25000000 4.14526800 5.59569310
29 3.00000000 4.48716800 7.75344320
29 5.22998050 4.64718800 7.46925300
40 7.80981440 5.61540810 7.84236280
40 5.25000000 7.63385790 7.86614320
40 9.78002930 7.14687790 6.23818300
29 10.19995120 6.58002800 9.20072310
40 3.53002930 6.06980790 9.91630310
40 5.95996090 3.28479000 9.78634300
40 8.93994140 3.84310900 10.2395129040 6.27001960 6.48098800 10.71247280
40 4.48999020 4.23700800 12.51553340
29 8.94995120 7.10164800 11.10393330
40 7.36987300 5.09112800 13.16636270
40 4.80004880 6.95203800 13.79336250
29 5.66992180 5.78236810 15.70696360
