# Buckingham coefficients for MoSe2

pair_style born/coul/wolf 0.0003869226688613496 7.898268379510417 7.614831519220617
pair_coeff 1 1 7769.92513956653 0.3360228666896364 0 885.1380397237746 0
pair_coeff 2 2 9158.327129108897 0.34885094326951654 0 982.5327519248219 0
pair_coeff 1 2 9999.913147274501 0.29381112441007645 0 757.7432414900966 0
