#------------------------------------------------------------------------------------------
# The Lammps script input of FeNi simulation can be done as below script:
#------------------------------------------------------------------------------------------
# LAMMPS 64-bit 22Dec2022-MSMPI
# ------------------------ INITIATION -------------------------------- 
units metal 
dimension 3 
boundary p p p 
atom_style atomic 
variable latparam equal 2.855 #using lattice constant of Fe 
# ----------------------- Geometry of Material ----------------------- 
lattice bcc ${latparam} 
region whole block 0 25 0 25 0 25 
create_box 3 whole 
lattice bcc ${latparam} orient x 1 0 0 orient y 0 1 0 orient z 0 0 1 
create_atoms 1 region whole 
set group all type/fraction 2 0.1 93432 #making FeNi structure 

mass 1 55.845 #Fe 
mass 2 58.710 #Ni 
# --------------------Potential function-------------------------------- 
pair_style eam/alloy 
pair_coeff * * Fe-Ni.eam.alloy Fe Ni Fe 

#--------------------Equilibration-------------------------------------- 
compute csym all centro/atom fcc 
compute peratom all pe/atom 

reset_timestep 0 
timestep 0.001 
velocity all create 300 12345 mom yes rot no 
fix 1 all npt temp 300 300 1 iso 0 0 1 drag 1 
minimize 1.0e-4 1.0e-6 100 1000 
thermo 1000 
thermo_style custom step lx ly lz press pxx pyy pzz pe temp 
run 20000 
unfix 1 
variable tmp equal "lx" 
variable L0 equal ${tmp} 
print "Initial Length, L0: ${L0}" 

#---------------------Stress-Strain Calculation---------------- 
reset_timestep 0 
fix 1 all npt temp 300 300 1 y 0 0 1 z 0 0 1 drag 1 
variable srate equal 1.0e10

variable srate1 equal "v_srate / 1.0e12" 
fix 2 all deform 1 x erate ${srate1} units box remap x 
variable strain equal "(lx - v_L0)/v_L0" 
variable p1 equal "v_strain" 
variable p2 equal "-pxx/10000" 
variable p3 equal "-pyy/10000" 
variable p4 equal "-pzz/10000" 
fix def1 all print 100 "${p1} ${p2} ${p3} ${p4}" file Fe90Ni.txt screen no 
dump 1 all custom 250 *.dump type x y z 
thermo 1000 
thermo_style custom step v_strain temp v_p2 v_p3 v_p4 ke pe press 
run 20000 
#---------------------simulation completely done------------ 
print "Simulation completed" 