# Input file for obtaining equilibrated 3D-crystal lattice of Cylinder-notched sample using LAMMPS:
# This program is for obtaining 3d-crystal lattice
# Cylinder-Notched: 50 x 100 x 50, 20566 atoms

#-------------------- Initialization -----------------------------------------------------
clear
echo both        # echoes each input script command to both log file and screen
units metal      # determines units of all quantities used in the input file 
dimension 3
boundary p p p   # periodic boundary condition

#-------------------- Atom & Lattice description ----------------------------------------
atom_style atomic 

# method 1 (easy method) (Deprecated: This method does not work properly for ternary systems or higher.)
#----------------------------------------------------------------------
region box block 0 50 0 100 0 50 units box # defines a geometric region of space
create_box 4 box # creates a simulation box in the specified region

lattice fcc 3.61 # lattice type and lattice parameter
region cu block 0 50 0 100 0 50 units box
create_atoms 1 region cu units box # creates copper atoms in the simulation box

# creating composition by using set command for Cu0.0625-Zr0.5625-Al0.1875-Co0.1875 alloy 
set region cu type/fraction 2 0.5625 12393 # set Zr 56.25%, randomly
set region cu type/fraction 3 0.1875 12393 # set Al 18.75%, randomly
set region cu type/fraction 4 0.1875 12393 # set Co 18.75%, randomly
#----------------------------------------------------------------------

# method 2 (layer type)
#----------------------------------------------------------------------
lattice fcc 3.61
region new_region block 0 50 0 100 0 50 units box 
create_box 4 new_region # set 4 types (4 elements)

# Zr (type 1) only, 25%
region zrzr block 0 50  0 25  0 50 units box
lattice fcc 3.61 orient x 1 0 0 orient y 0 1 0 orient z 0 0 1 
create_atoms 1 region zrzr

# Zr (type 1) main
region zrcu block 0 50 25 50  0 50 units box 
lattice fcc 3.61 orient x 1 0 0 orient y 0 1 0 orient z 0 0 1 
create_atoms 1 region zrcu

# Zr (type 1) main
region zral block 0 50 50 75  0 50 units box 
lattice fcc 3.61 orient x 1 0 0 orient y 0 1 0 orient z 0 0 1 
create_atoms 1 region zral

# Zr (type 1) main
region zrco block 0 50 75 100 0 50 units box 
lattice fcc 3.61 orient x 1 0 0 orient y 0 1 0 orient z 0 0 1 
create_atoms 1 region zrco

# creating composition by using set command for Cu0.0625-Zr0.5625-Al0.1875-Co0.1875 alloy 
set region zrcu type/fraction 2 $(0.0625*4) 12393 # set Cu  6.25%, randomly
set region zral type/fraction 3 $(0.1875*4) 12393 # set Al 18.75%, randomly
set region zrco type/fraction 4 $(0.1875*4) 12393 # set Co 18.75%, randomly

#group gzrzr region zrzr
#group gzrcu region zrcu
#group gzral region zral
#group gzrco region zrco
#----------------------------------------------------------------------

# delete area
#----------------------------------------------------------------------
region cu1 cylinder z 50 50 10 0 50 units box # defines a geometric region of Cylinder-notch
group crystal1 region cu1
delete_atoms group crystal1 # creates square-notch in the simulation box

region cu2 cylinder z  0 50 10 0 50 units box # defines a geometric region of Cylinder-notch
group crystal2 region cu2
delete_atoms group crystal2 # creates square-notch in the simulation box
#----------------------------------------------------------------------

#-------------------- Force field --------------------------------------------------------
pair_style eam/alloy
pair_coeff * * CuZrAlNiCoPdAg_Zhou04.eam.alloy Zr Cu Al Co

#-------------------- Monte Carlo swaps (method 2 case at 1300 K) ------------------------
fix mc_zrcu all atom/swap 1 1 12345 1300 ke no types 1 2
fix mc_zral all atom/swap 1 1 12345 1300 ke no types 1 3
fix mc_zrco all atom/swap 1 1 12345 1300 ke no types 1 4
run 5000
unfix mc_zrcu
unfix mc_zral
unfix mc_zrco

#-------------------- Energy Minimization ------------------------------------------------
# 0 [K], structure optimization
#minimize 1.0e-7 1.0e-8 1000 1000

#-------------------- Settings -----------------------------------------------------------
#reset_timestep 0

timestep 0.002   # sets the timestep for subsequent simulations

thermo 100 # computes and prints thermodynamic 
thermo_style custom step temp vol press etotal # specifies content of thermodynamic  data to be printed in screen

#---------- output file settings ---------- 
#dump 1 all atom 10 Cu_crystal_melt_3d_s_dump_new.lammpstrj # dumps a snapshot of atom quantities every 10 time steps to the specified file
#dump_modify 1 scale no # modifies parameters of previously defined dump command.
## A value of scale no means atom coordinates are written in absolute distance units. 
#---------------------------------------------------
dump            d1 all cfg 10 cfg/run.*.cfg mass type xs ys zs id type vx vy vz fx fy fz
dump_modify     d1 element Zr Cu Al Co
#---------------------------------------------------
#log logCu_crystal_melt_3d_s_new.data # closes the current log file, opens a new log file, and begins logging information to it

# calculates the radial distribution function (RDF) and output file
compute myRDF all rdf 1000
fix 11 all ave/time 1 1 100 c_myRDF[*] file data.rdf mode vector

velocity all create 300 873847 rot yes mom yes dist gaussian # sets the velocity of a group of atoms

#-------------------- Run the simulation -------------------------------------------------
fix 1 all npt temp 100 100 0.1 iso 0 0 0.1 # temp and pressure conserve
run 1000 # program is run for 1000 iterations
unfix 1  # deletes the previously defined fix 1

#--------------------------------------------------------------------------------
# Since random numbers are used for arrangement, the composition ratio is #
# slightly different from the specified ratio. Under the conditions calculated this time, 
# the composition ratio is as follows. Also keep in mind that this value will change 
# if you change the random number seed.
#--------------------------------------------------------------------------------
group zr type 1
group cu type 2
group al type 3
group co type 4
#----------------------------
variable  nzr equal count(zr)
variable  ncu equal count(cu)
variable  nal equal count(al)
variable  nco equal count(co)
#----------------------------
variable ntot equal ${nzr}+${ncu}+${nal}+${nco}
#----------------------------
variable nnzr equal ${nzr}/${ntot}
variable nncu equal ${ncu}/${ntot}
variable nnal equal ${nal}/${ntot}
variable nnco equal ${nco}/${ntot}
#-----------------------------
variable snnzr format nnzr %05.3f
variable snncu format nncu %05.3f
variable snnal format nnal %05.3f
variable snnco format nnco %05.3f
#----------------------------
variable pnzr equal ${nzr}/${ntot}*100
variable pncu equal ${ncu}/${ntot}*100
variable pnal equal ${nal}/${ntot}*100
variable pnco equal ${nco}/${ntot}*100
#-----------------------------
variable spnzr format pnzr %4.1f
variable spncu format pnpd %4.1f
variable spnal format pnfe %4.1f
variable spnco format pnal %4.1f
#--------------------------------------------------------------------------------
print "Zr: ${snnzr}, Cu: ${snncu}, Al: ${snnal}, Co: ${snnco} [ratio]"
print "Zr: ${spnzr}, Cu: ${spncu}, Al: ${spnal}, Co: ${spnco} [%]"
#--------------------------------------------------------------------------------

#-------------------- Output data file ---------------------------------------------------
write_data Test.dat

#-------------------- End ----------------------------------------------------------------