C4
1.0
        2.4677240849         0.0000000000         0.0000000000
       -1.2338620424         2.1371117470         0.0000000000
        0.0000000000         0.0000000000        20.0000000000
    C
    2
Direct
     0.000000000         0.000000000         0.500000000
     0.666666713         0.333333330         0.500000000
