# Appendix B: Sample script in LAMMPS
# The following script was used in LAMMPS to study the diffusion in Ni at 1550 K. 
# The input file,"Ni_Data.txt" contains atom IDs, coordinates of Ni atoms in a system with
# a relaxed screw dislocation. Lines starting with # are comments.
#-----------------------------------------------------------------------------------------
# LAMMPS 64-bit 22Dec2022-MSMPI
clear
#-------------------- Initialization -----------------------------------------------------
units metal       # define the unit system used 
dimension 3       # 3 dimension simulation box 
boundary f f p    # boundary conditions along x, y and z directions. f for fixed and p for periodic. 

#-------------------- Atom & Lattice description ----------------------------------------
# style of particles 
atom_style atomic

#------------------------------------
# defining the structure, lattice parameter and orientation of x, y and z directions
lattice fcc 3.52 orient x 1 0 0 orient y 0 1 0 orient z 0 0 1

# (radius, r = 25 A, D = 2*r = 50 Angstrom) (ylinder dim c1 c2 radius lo hi)
region mycylinder cylinder z 0 0 25 -25 24.8 units box 
create_box 1 mycylinder 

create_atoms 1 region mycylinder units box 
#------------------------------------

#------------------------------------
region vo cylinder z 0 0 $(9/2) -25 24.8 units box
group void region vo
delete_atoms group void
#------------------------------------

#------------------------------------
# defining the structure, lattice parameter and orientation of x, y and z directions
#lattice fcc 3.52 orient x -1 1 -2 orient y -1 1 1 orient z 1 1 0 
lattice hcp 3.52 orient x 1 0 0 orient y 0 1 0 orient z 0 0 1 

# The dislocation widths: Al (7 A), Ni (9 A), Cu (13 A), Ag (25 A)
region Ni cylinder z 0 0 $(9/2) -25 24.8 units box 
create_atoms 1 region Ni units box 
#------------------------------------

# reading atom IDs and coordinates from the input file 
#read_data Ni_Data.txt

group ni type 1

#-------------------- Define Interatomic Potential ---------------------------------------
pair_style eam/alloy
pair_coeff * * Mishin_updated-Ni-Al-Co-2013.eam.alloy Ni 

#-------------------- Energy Minimization ------------------------------------------------
delete_atoms overlap 0.35 all all

# 0 [K], structure optimization
minimize 1e-6 1e-6 10000 10000

# --------------- fixing atoms on the edge of the cylinder -------------------------------

region inside cylinder z 0 1 20 -25 24.8 side  in units box 
region   edge cylinder z 0 1 20 -25 24.8 side out units box 

group   edge region edge 
group inside region inside

fix 1 edge setforce 0 0 0 

#------- defining cylinders with different radii to study diffusion -----

#------------------------------------
region diffusionR1  cylinder z 0 1  5 -25 24.8 side in units box 
group diffusionR1 region diffusionR1 
#------------------------------------
region diffusionR2  cylinder z 0 1  6 -25 24.8 side in units box 
group diffusionR2 region diffusionR2 
#------------------------------------
region diffusionR3  cylinder z 0 1  7 -25 24.8 side in units box
group diffusionR3 region diffusionR3 
#------------------------------------
region diffusionR4  cylinder z 0 1  8 -25 24.8 side in units box 
group diffusionR4 region diffusionR4 
#------------------------------------
region diffusionR5  cylinder z 0 1  9 -25 24.8 side in units box 
group diffusionR5 region diffusionR5 
#------------------------------------
region diffusionR6  cylinder z 0 1 10 -25 24.8 side in units box 
group diffusionR6 region diffusionR6 
#------------------------------------
region diffusionR7  cylinder z 0 1 11 -25 24.8 side in units box 
group diffusionR7 region diffusionR7 
#------------------------------------
region diffusionR8  cylinder z 0 1 12 -25 24.8 side in units box 
group diffusionR8 region diffusionR8 
#------------------------------------
region diffusionR9  cylinder z 0 1 13 -25 24.8 side in units box 
group diffusionR9 region diffusionR9 
#------------------------------------
region diffusionR10 cylinder z 0 1 14 -25 24.8 side in units box 
group diffusionR10 region diffusionR9 
#------------------------------------

#-------------------- Settings -----------------------------------------------------------
reset_timestep 0 

timestep 0.002 # 2 [fs]

thermo 100
thermo_style custom step temp vol press etotal pe ke

#---------- output file settings -------------------
dump            d1 all cfg 100 cfg/run.nvt.*.cfg mass type xs ys zs id type vx vy vz fx fy fz
dump_modify     d1 element Ni
#---------------------------------------------------

#assigning velocities to atoms with respect to the desired temperature
velocity inside create 1550 102486 mom yes rot no 

#-------------------- Run the simulation (NVT) ---------------------------------------------

# Al: 800-1000 K, Ni: 1500-1600 K, Cu: 1250-1325 K
# running dynamics with NVT ensemble to reach the desired temperature 
fix 15 inside nvt temp 1550 1550 100

run 500000

undump d1

#-------------------- Run the simulation -------------------------------------------------
# The total energy (𝐸 = potential energy + kinetic energy) 

# starting to dump output files of cylinders with different radii and run dynamics for 30 #nanoseconds
dump 10 all custom 50000 DUMP_All_Ni_1550K.lammpstrj id type x y z
dump 11 diffusionR1 custom 10000 results/DUMP_R1.lammpstrj id type xu yu zu
dump 12 diffusionR2 custom 10000 results/DUMP_R2.lammpstrj id type xu yu zu
dump 13 diffusionR3 custom 10000 results/DUMP_R3.lammpstrj id type xu yu zu
dump 14 diffusionR4 custom 10000 results/DUMP_R4.lammpstrj id type xu yu zu
dump 15 diffusionR5 custom 10000 results/DUMP_R5.lammpstrj id type xu yu zu
dump 16 diffusionR6 custom 10000 results/DUMP_R6.lammpstrj id type xu yu zu
dump 17 diffusionR7 custom 10000 results/DUMP_R7.lammpstrj id type xu yu zu
dump 18 diffusionR8 custom 10000 results/DUMP_R8.lammpstrj id type xu yu zu
dump 19 diffusionR9 custom 10000 results/DUMP_R9.lammpstrj id type xu yu zu

#---------- output file settings -------------------
dump            d2 all cfg 100 cfg/run.*.cfg mass type xs ys zs id type vx vy vz fx fy fz
dump_modify     d2 element Ni
#---------------------------------------------------

run 15000000

#-------------------- End ----------------------------------------------------------------

#-----------------------------------------------------------------------------------------
# Note
# The diffusion coefficient in each of the cylinders can be found using 
# the Einstein formula for diffusivity:
# MSD  <[z(t0) - z(t0 + t)]^2> = 2*D*t
# where 𝐷 is the diffusion coefficient, t0 is time origin, 𝑡 is time and < > averages over 
# all atoms in the chosen cylinder and all time origins 
# (any time step can be considered time zero, t0, in Equation 4.1). 
# MSD is the Mean Squared Displacements of atoms along the dislocation line for atoms located in 
# each cylinder. Therefore, D in each of the cylinders, can be found using the slope of MSD vs. time. 
# Next, by plotting D vs. the radius, R, at different temperatues, 
# it is possible to find the activation energy of self-diffusion along 
# the dislocation core in each of the elements, as proposed in [9]
# [9] G.P. Purja Pun, Y. Mishin, Acta Mater. 57 (2009) 5531-5542.
#-----------------------------------------------------------------------------------------