#-----------------------------------------------------------
# X. Zhou et al., Comput. Chem. 41 (2020) 1299-1309.: https://doi.org/10.1002/jcc.26176
#-----------------------------------------------------------
# Usage
pair_style polymorphic
pair_coeff * * jcc_26176_fech_bop_i.txt Fe C H
#-----------------------------------------------------------
# Usage
pair_style polymorphic
pair_coeff * * jcc_26176_fech_bop_ii.txt Fe C H
#-----------------------------------------------------------
# Usage
pair_style polymorphic
pair_coeff * * FeCH_BOP_I.poly Fe C H
#-----------------------------------------------------------
# Usage
pair_style polymorphic
pair_coeff * * FeCH_BOP_II.poly Fe C H
#-----------------------------------------------------------
# Not ! (This settings do not work !)
pair_style polymorphic
pair_coeff * * jcc_26176_fech_bop_i.txt Fe H
#-----------------------------------------------------------

#-----------------------------------------------------------
The potential below does not yet have all the parameters filled in.
FeCH-1.tersoff.zbl
FeCH-2.tersoff.zbl
#-----------------------------------------------------------
