# 3D copper block simulation
boundary    p p p
units       metal
atom_style  atomic

# geometry
read_data	data.pos

# EAM potential
pair_style  	eam/opt
pair_coeff   	* * ./potentials/eam/cuu3.eam
neighbor       0.5 nsq
neigh_modify   every 1 delay 0 check yes

#Langevin random seed
variable r equal 57085
variable t equal 300    # temperature [K]
variable d equal 1

# initialize
velocity all create $t 28459 rot yes dist gaussian mom yes
reset_timestep 0

# fixes 
fix      1 all npt temp $t $t $d iso 1. 1. 1. pchain 8 drag 1.0
fix      2 all phonon 10 5000 50000 map.in ./data/Phonon

#
timestep 2e-3

# output
#                    1    2    3  4  5     6   7  8  9  10 11 12
thermo_style  custom step temp pe ke press vol lx ly lz xy xz yz
thermo  100

restart 200000 ./data/restart.one ./data/restart.two

# execution
run 	 650000
write_restart Restart.final
