pair_style      meam/c
pair_coeff      * * library.meam Cr N Ti    CrTiN.meam Cr N Ti 
neighbor 2.0 bin 
neigh_modify delay 10 check yes 
