#-----------------------------------------------------------------------------------------
### Created by Eric N. Hahn  ###
### ericnhahn@gmail.com ###
### Diamond impact of graphene sheets ###
### Version 0.4 ###
#-----------------------------------------------------------------------------------------
### Small changes by STUDENT
#-----------------------------------------------------------------------------------------
# LAMMPS 64-bit 22Dec2022-MSMPI
#-----------------------------------------------------------------------------------------

#------------------ Setup the simulation -------------------------

variable name string Graphene_impact_0.4
#log log.${name}
echo screen
dimension  3
units metal
atom_style atomic
boundary p p p

lattice custom 2.4205 a1 1  0  0  a2 0 1.73203 0 &
 basis 0 0 0  &
 basis 0.5 0.16666666666666666 0 &
 basis 0.5 0.5 0 &
 basis 0 0.6666666666666666 0
region box block  -77 77 -44 44 -5 100 units lattice
create_box 3 box

# bottom layer (graphene sheet)
region graphene block  -77 77 -44 44 0 0.1 units lattice
create_atoms 1 region graphene 

# top layer (graphene sheet)
region graphene2 block -77 77 -44 44 8 8.1 units lattice
create_atoms 2 region graphene2 

# Creating a sphere for impact
lattice diamond 3.567
region mobile sphere 0 0 150 24 units box
create_atoms 3 region mobile
group impactor region mobile

mass * 12.011 # C

#-------------- Define Interatomic Potential -------------------
pair_style airebo/morse 3.0
pair_coeff * * CH.airebo-m C C C

compute 3 all pe/atom
compute 4 all stress/atom NULL virial #note, ignores thermal contribution to stress

#------------- Run the simulation for equilibration -------------
timestep 0.001 # 1 [fs]

thermo  5
thermo_style custom step pe ke etotal temp lx ly lz press atoms

dump eve all custom 5 dump/dump.graphene_impact_new2020_min.* id type x y z vx vy vz c_3 fz c_4[1] c_4[2] c_4[3]
dump d1 all cfg 25 cfg/equil_npt.*.cfg mass type xs ys zs id type vx vy vz fx fy fz
dump_modify d1 element C1 C2 Ci

fix smaller all box/relax aniso 0.0
minimize 1.0e-10 1.0e-10 50 50
unfix smaller

# initial temperature 300 K
velocity all create 300.0 12345 dist gaussian

# equilibration, NPT, 298 K
fix npt all npt temp 298 298 .5 x 0.0 0.0 .5 y 0.0 0.0 .5

fix bp all balance 250 1 shift z 10 1
run 10

minimize 1.0e-4 1.0e-6 10 10

# set temperature 450 Ks
velocity all create 450.0 123456 dist gaussian
run 10

group graphene1 region graphene
group graphene2 region graphene2
group graphene union graphene1 graphene2
variable ymn equal ylo+4
variable ymx equal yhi-4
variable xmn equal xlo+4
variable xmx equal xhi-4
region middle block ${xmn} ${xmx} ${ymn} ${ymx} -5 20 units box
group middle region middle
group edge subtract graphene middle
unfix npt

change_box all boundary p p s

undump eve
undump d1

#------------- Run the simulation for impact --------------
reset_timestep 0

timestep 0.001 # 1 [fs]

dump eve all custom 2 dump/ump.${name}.* id type x y z vx vy vz c_3 fz c_4[1] c_4[2] c_4[3]
dump d2 all cfg 25 cfg/dump.graphene_impact.*.cfg mass type xs ys zs id type vx vy vz fx fy fz
dump_modify d2 element C1 C2 Ci

velocity edge set 0 0 0 sum no units box
fix sheet edge setforce 0 0 0.0

velocity impactor set 0.0 0.0 -50.0 sum yes units box # 20 A/ps = 2 km/s

fix nve all nve

run 40000

print "Jobs done"
#-----------------------------------------------------------------------------------------