# A.1 LAMMPS code

# Examples of the LAMMPS submission files used for thermal conductivity and across-interface
# thermal transport calculations are given here. The first file (shown below) was used to calculate
# the thermal conductivity of a (100) beta-Ga2O3 slab of approximate thickness of 120 nm. 
# Submission files of this type were used to estimate the change in beta-Ga2O3 thermal conductivity with
# increasing material thickness along different crystallographic orientations.

units metal
boundary p p p
atom_style charge
lattice custom 1.0 &
  a1 12.2299995422 0.0000000000 0.0000000000 &
  a2  0.0000000000 3.0399999619 0.0000000000 &
  a3 -1.3736609922 0.0000000000 5.6349851545 &
  basis 0.090399995 0.000000000 0.794799939 &
  basis 0.909599983 0.000000000 0.205199986 &
  basis 0.590399966 0.500000000 0.794799939 &
  basis 0.409599983 0.500000000 0.205199986 &
  basis 0.341399978 0.000000000 0.685699987 &
  basis 0.658599936 0.000000000 0.314299981 &
  basis 0.841400056 0.500000000 0.685699987 &
  basis 0.158599995 0.500000000 0.314299981 &
  basis 0.167400004 0.000000000 0.101099994 &
  basis 0.832599951 0.000000000 0.898899984 &
  basis 0.667400043 0.500000000 0.101099994 &
  basis 0.332599990 0.500000000 0.898899984 &
  basis 0.495700006 0.000000000 0.255299985 &
  basis 0.504299988 0.000000000 0.744700003 &
  basis 0.995699967 0.500000000 0.255299985 &
  basis 0.004299993 0.500000000 0.744700003 &
  basis 0.827900015 0.000000000 0.436500000 &
  basis 0.172100006 0.000000000 0.563499967 &
  basis 0.327899937 0.500000000 0.436500000 &
  basis 0.672100016 0.500000000 0.56349996

region main block -50 50 -10 10 0 10
create_box 2 main

mass 1 69.723 # Ga
mass 2 15.999 # O

create_atoms 2 region main &
  basis 1 1 &
  basis 2 1 &
  basis 3 1 &
  basis 4 1 &
  basis 5 1 &
  basis 6 1 &
  basis 7 1 &
  basis 8 1 &
  basis 9 2 &
  basis 10 2 &
  basis 11 2 &
  basis 12 2 &
  basis 13 2 &
  basis 14 2 &
  basis 15 2 &
  basis 16 2 &
  basis 17 2 &
  basis 18 2 &
  basis 19 2 &
  basis 20 2

set type 1 charge  3 #  2.67
set type 2 charge -2 # -2.51

pair_style born/coul/dsf/cs 0.2 16.0
pair_coeff * * 0.0 16.0 0.0 0.0 0.0
pair_coeff 1 2 907.89 0.345 0.0 10.0 0.0
pair_coeff 2 2 22764.0 0.149 0.0 0.0 0.0

region cold1 block -50 -49 -10 10 0 10
region cold2 block 49 50 -10 10 0 10
region hot block -1 1 -10 10 0 10

compute   Thot all temp/region hot
compute Tcold2 all temp/region cold2
compute Tcold1 all temp/region cold1

timestep 0.001

#equilibration

thermo 1

minimize 1.0e-10 1.0e-10 100000 100000

reset_timestep 0

#write_data 1.dat

#---------------------------------------------------------
dump            d1 all cfg 1000 cfg/run.nvt.*.cfg mass type xs ys zs id type vx vy vz fx fy fz
dump_modify     d1 element Ga O
#---------------------------------------------------------

velocity all create 300.0 4928459 dist gaussian

fix 1 all nvt temp 300 300 0.002

run 100000

unfix 1
undump d1

#in.heat conductivity calculation part1

fix 1 all nve
fix hot all heat 1 20.0 region hot
fix cold2 all heat 1 -10.0 region cold2
fix cold1 all heat 1 -10.0 region cold1

thermo 1000
thermo_style custom step temp c_Tcold1 c_Thot c_Tcold2

#---------------------------------------------------------
dump            d2 all cfg 1000 cfg/run.cond.*.cfg mass type xs ys zs id type vx vy vz fx fy fz
dump_modify     d2 element Ga O
#---------------------------------------------------------

run 600000

undump d2

#actual calculation

compute ke all ke/atom
variable temp atom c_ke/1.5
compute layers all chunk/atom bin/1d x lower 0.01 units reduced
fix 2 all ave/chunk 10 100 1000 layers v_temp temp file profile.heat

#---------------------------------------------------------
dump            d3 all cfg 1000 cfg/run.temp.*.cfg mass type xs ys zs id type vx vy vz fx fy fz v_temp
dump_modify     d3 element Ga O
#---------------------------------------------------------

run 10000