# 
# Keywords:
# 
opti molmec conp phon eckart lower  rfo
# 
# Options:
# 
cartesian region  1   
O5    core 11.330807 14.526372 10.418385 -0.6818000 1.00000 0.00000             
S5    core 11.620157 14.297034 11.795983 1.14400000 1.00000 0.00000             
O5    core 11.295321 15.538232 12.412948 -0.6818000 1.00000 0.00000             
O5    core 10.648726 13.324264 12.224560 -0.6818000 1.00000 0.00000             
C5    core 13.310376 13.793748 12.018609 -0.0734000 1.00000 0.00000             
C5    core 14.324709 14.753454 12.018407 -0.1009000 1.00000 0.00000             
H5    core 14.072161 15.794124 11.910747 0.14460000 1.00000 0.00000             
C5    core 15.658739 14.368598 12.143405 -0.1678000 1.00000 0.00000             
H5    core 16.443400 15.120765 12.127603 0.11690000 1.00000 0.00000             
C5    core 15.993879 13.020707 12.264578 0.03330000 1.00000 0.00000             
C5    core 14.978305 12.059710 12.279718 -0.1678000 1.00000 0.00000             
H5    core 15.233589 10.993919 12.361712 0.11690000 1.00000 0.00000             
C5    core 13.643990 12.444932 12.159026 -0.1009000 1.00000 0.00000             
H5    core 12.873396 11.673688 12.146295 0.14460000 1.00000 0.00000             
N6    core 17.315755 12.679123 12.353003 -0.0940000 1.00000 0.00000             
H6    core 18.001049 13.439078 12.415313 0.26060000 1.00000 0.00000             
N5    core 17.797344 11.407195 12.307553 -0.0985000 1.00000 0.00000             
C6    core 19.067376 11.102393 12.393744 -0.0204000 1.00000 0.00000             
C5    core 19.436262 9.7046966 12.262554 -0.0023000 1.00000 0.00000             
C5    core 18.478756 8.7194870 11.971752 -0.2262000 1.00000 0.00000             
H5    core 17.448157 8.9744069 11.867111 0.13940000 1.00000 0.00000             
C5    core 18.854077 7.3893204 11.803332 -0.0513000 1.00000 0.00000             
H5    core 18.128030 6.6327731 11.585609 0.14400000 1.00000 0.00000             
C5    core 20.189971 7.0158765 11.922536 -0.1159000 1.00000 0.00000             
C5    core 21.146120 7.9867863 12.219693 -0.0935000 1.00000 0.00000             
H5    core 22.215031 7.7076328 12.310464 0.12780000 1.00000 0.00000             
C5    core 20.779584 9.3237846 12.388607 0.03470000 1.00000 0.00000             
C6    core 21.828055 10.275969 12.660056 -0.1161000 1.00000 0.00000             
H5    core 22.884215 9.9832128 12.758401 0.15660000 1.00000 0.00000             
C7    core 21.474530 11.605298 12.741168 -0.3625000 1.00000 0.00000             
H5    core 22.231435 12.383927 12.906335 0.14320000 1.00000 0.00000             
C8    core 20.114869 12.135420 12.606082 0.60810000 1.00000 0.00000             
O5    core 19.918316 13.335201 12.686608 -0.5968000 1.00000 0.00000             
S5    core 20.628347 5.3300855 11.656067 1.16589999 1.00000 0.00000             
O5    core 20.315989 4.8929853 10.347219 -0.6823000 1.00000 0.00000             
O5    core 22.024349 4.9971832 11.883223 -0.6823000 1.00000 0.00000             
O5    core 19.868986 4.4384092 12.476599 -0.6823000 1.00000 0.00000             
O5    core 24.150447 8.7799131 10.826462 -0.6818000 1.00000 0.00000             
S5    core 23.899598 9.0691288 9.4508090 1.14400000 1.00000 0.00000             
O5    core 25.072901 9.7455493 9.0207792 -0.6818000 1.00000 0.00000             
O5    core 23.875912 7.7724844 8.8177960 -0.6818000 1.00000 0.00000             
C5    core 22.394831 9.9929114 9.2567563 -0.0734000 1.00000 0.00000             
C5    core 22.424078 11.386885 9.3361552 -0.1009000 1.00000 0.00000             
H5    core 23.360444 11.886946 9.4922238 0.14460000 1.00000 0.00000             
C5    core 21.245542 12.123647 9.2268882 -0.1678000 1.00000 0.00000             
H5    core 21.273191 13.202690 9.3058866 0.11690000 1.00000 0.00000             
C5    core 20.024747 11.475761 9.0424614 0.03330000 1.00000 0.00000             
C5    core 19.995582 10.080766 8.9509317 -0.1678000 1.00000 0.00000             
H5    core 19.035293 9.5550851 8.8190291 0.11690000 1.00000 0.00000             
C5    core 21.174600 9.3443986 9.0556597 -0.1009000 1.00000 0.00000             
H5    core 21.120049 8.2518949 9.0040186 0.14460000 1.00000 0.00000             
N6    core 18.886186 12.231147 8.9661672 -0.0940000 1.00000 0.00000             
H6    core 18.987614 13.245582 8.9696807 0.26060000 1.00000 0.00000             
N5    core 17.620712 11.731582 8.9379361 -0.0985000 1.00000 0.00000             
C6    core 16.542670 12.469488 8.8591189 -0.0204000 1.00000 0.00000             
C5    core 15.258030 11.796118 8.9135894 -0.0023000 1.00000 0.00000             
C5    core 15.166992 10.410309 9.1212806 -0.2262000 1.00000 0.00000             
H5    core 16.043715 9.8095663 9.2174644 0.13940000 1.00000 0.00000             
C5    core 13.926885 9.7856118 9.2230478 -0.0513000 1.00000 0.00000             
H5    core 13.847740 8.7256095 9.3804146 0.14400000 1.00000 0.00000             
C5    core 12.754893 10.529327 9.1158448 -0.1159000 1.00000 0.00000             
C5    core 12.836448 11.903943 8.8960977 -0.0935000 1.00000 0.00000             
H5    core 11.911254 12.508426 8.8158902 0.12780000 1.00000 0.00000             
C5    core 14.075618 12.540483 8.7985478 0.03470000 1.00000 0.00000             
C6    core 14.079970 13.970512 8.6134484 -0.1161000 1.00000 0.00000             
H5    core 13.153937 14.556951 8.5304280 0.15660000 1.00000 0.00000             
C7    core 15.302610 14.606029 8.6013468 -0.3625000 1.00000 0.00000             
H5    core 15.372465 15.693839 8.5063875 0.14320000 1.00000 0.00000             
C8    core 16.606227 13.948921 8.7325992 0.60810000 1.00000 0.00000             
O5    core 17.627490 14.614399 8.7168264 -0.5968000 1.00000 0.00000             
S5    core 11.209443 9.7124859 9.3107079 1.16589999 1.00000 0.00000             
O5    core 11.080865 9.0942372 10.575764 -0.6823000 1.00000 0.00000             
O5    core 10.027077 10.536107 9.1196811 -0.6823000 1.00000 0.00000             
O5    core 11.064634 8.6083537 8.4076947 -0.6823000 1.00000 0.00000             
Na5   core 21.120069 2.8391223 11.217621 1.00000000 1.00000 0.00000             
Na5   core 9.0280154 8.3800326 9.6387843 1.00000000 1.00000 0.00000             
Na5   core 9.2014419 15.035506 11.341045 1.00000000 1.00000 0.00000             
Na5   core 26.043506 7.7120849 9.8623796 1.00000000 1.00000 0.00000             
lenn epsilon geometric 12  6 x13  0.5000
C8    core C8    core  0.000 99.0
lenn epsilon geometric 12  6 x13  0.5000
C8    core O5    core  0.000 99.0
lenn epsilon geometric 12  6 x13  0.5000
O5    core O5    core  0.000 99.0
lenn epsilon geometric 12  6 x13  0.5000
C7    core C8    core  0.000 99.0
lenn epsilon geometric 12  6 x13  0.5000
C7    core O5    core  0.000 99.0
lenn epsilon geometric 12  6 x13  0.5000
C7    core C7    core  0.000 99.0
lenn epsilon geometric 12  6 x13  0.5000
C6    core C8    core  0.000 99.0
lenn epsilon geometric 12  6 x13  0.5000
C6    core O5    core  0.000 99.0
lenn epsilon geometric 12  6 x13  0.5000
C6    core C7    core  0.000 99.0
lenn epsilon geometric 12  6 x13  0.5000
C6    core C6    core  0.000 99.0
lenn epsilon geometric 12  6 x13  0.5000
C8    core N5    core  0.000 99.0
lenn epsilon geometric 12  6 x13  0.5000
N5    core O5    core  0.000 99.0
lenn epsilon geometric 12  6 x13  0.5000
C7    core N5    core  0.000 99.0
lenn epsilon geometric 12  6 x13  0.5000
C6    core N5    core  0.000 99.0
lenn epsilon geometric 12  6 x13  0.5000
N5    core N5    core  0.000 99.0
lenn epsilon geometric 12  6 x13  0.5000
C8    core N6    core  0.000 99.0
lenn epsilon geometric 12  6 x13  0.5000
N6    core O5    core  0.000 99.0
lenn epsilon geometric 12  6 x13  0.5000
C7    core N6    core  0.000 99.0
lenn epsilon geometric 12  6 x13  0.5000
C6    core N6    core  0.000 99.0
lenn epsilon geometric 12  6 x13  0.5000
N5    core N6    core  0.000 99.0
lenn epsilon geometric 12  6 x13  0.5000
N6    core N6    core  0.000 99.0
lenn epsilon geometric 12  6 x13  0.5000
C5    core C8    core  0.000 99.0
lenn epsilon geometric 12  6 x13  0.5000
C5    core O5    core  0.000 99.0
lenn epsilon geometric 12  6 x13  0.5000
C5    core C7    core  0.000 99.0
lenn epsilon geometric 12  6 x13  0.5000
C5    core C6    core  0.000 99.0
lenn epsilon geometric 12  6 x13  0.5000
C5    core N5    core  0.000 99.0
lenn epsilon geometric 12  6 x13  0.5000
C5    core N6    core  0.000 99.0
lenn epsilon geometric 12  6 x13  0.5000
C5    core C5    core  0.000 99.0
lenn epsilon geometric 12  6 x13  0.5000
H6    core C8    core  0.000 99.0
lenn epsilon geometric 12  6 x13  0.5000
H6    core O5    core  0.000 99.0
lenn epsilon geometric 12  6 x13  0.5000
H6    core C7    core  0.000 99.0
lenn epsilon geometric 12  6 x13  0.5000
H6    core C6    core  0.000 99.0
lenn epsilon geometric 12  6 x13  0.5000
H6    core N5    core  0.000 99.0
lenn epsilon geometric 12  6 x13  0.5000
H6    core N6    core  0.000 99.0
lenn epsilon geometric 12  6 x13  0.5000
H6    core C5    core  0.000 99.0
lenn epsilon geometric 12  6 x13  0.5000
H6    core H6    core  0.000 99.0
lenn epsilon geometric 12  6 x13  0.5000
H5    core C8    core  0.000 99.0
lenn epsilon geometric 12  6 x13  0.5000
H5    core O5    core  0.000 99.0
lenn epsilon geometric 12  6 x13  0.5000
H5    core C7    core  0.000 99.0
lenn epsilon geometric 12  6 x13  0.5000
H5    core C6    core  0.000 99.0
lenn epsilon geometric 12  6 x13  0.5000
H5    core N5    core  0.000 99.0
lenn epsilon geometric 12  6 x13  0.5000
H5    core N6    core  0.000 99.0
lenn epsilon geometric 12  6 x13  0.5000
H5    core C5    core  0.000 99.0
lenn epsilon geometric 12  6 x13  0.5000
H5    core H6    core  0.000 99.0
lenn epsilon geometric 12  6 x13  0.5000
H5    core H5    core  0.000 99.0
lenn epsilon geometric 12  6 x13  0.5000
C8    core S5    core  0.000 99.0
lenn epsilon geometric 12  6 x13  0.5000
O5    core S5    core  0.000 99.0
lenn epsilon geometric 12  6 x13  0.5000
C7    core S5    core  0.000 99.0
lenn epsilon geometric 12  6 x13  0.5000
C6    core S5    core  0.000 99.0
lenn epsilon geometric 12  6 x13  0.5000
N5    core S5    core  0.000 99.0
lenn epsilon geometric 12  6 x13  0.5000
N6    core S5    core  0.000 99.0
lenn epsilon geometric 12  6 x13  0.5000
C5    core S5    core  0.000 99.0
lenn epsilon geometric 12  6 x13  0.5000
H6    core S5    core  0.000 99.0
lenn epsilon geometric 12  6 x13  0.5000
H5    core S5    core  0.000 99.0
lenn epsilon geometric 12  6 x13  0.5000
S5    core S5    core  0.000 99.0
lenn epsilon geometric 12  6 x13  0.5000
C8    core Na5   core  0.000 99.0
lenn epsilon geometric 12  6 x13  0.5000
O5    core Na5   core  0.000 99.0
lenn epsilon geometric 12  6 x13  0.5000
C7    core Na5   core  0.000 99.0
lenn epsilon geometric 12  6 x13  0.5000
C6    core Na5   core  0.000 99.0
lenn epsilon geometric 12  6 x13  0.5000
N5    core Na5   core  0.000 99.0
lenn epsilon geometric 12  6 x13  0.5000
N6    core Na5   core  0.000 99.0
lenn epsilon geometric 12  6 x13  0.5000
C5    core Na5   core  0.000 99.0
lenn epsilon geometric 12  6 x13  0.5000
H6    core Na5   core  0.000 99.0
lenn epsilon geometric 12  6 x13  0.5000
H5    core Na5   core  0.000 99.0
lenn epsilon geometric 12  6 x13  0.5000
Na5   core S5    core  0.000 99.0
lenn epsilon geometric 12  6 x13  0.5000
Na5   core Na5   core  0.000 99.0
coulomb intra o14  0.1667
X     core X     core  1.0000 0.000  7.000
harmonic intra bond
H6    core N6    core  34.7956      1.01400      0.00000    
harmonic intra bond
H5    core C5    core  29.8607      1.08700      0.00000    
harmonic intra bond
C5    core S5    core  22.8877      1.75900      0.00000    
harmonic intra bond
C8    core O5    core  56.2003      1.21400      0.00000    
harmonic intra bond
C6    core C7    core  43.7113      1.37100      0.00000    
harmonic intra bond
C6    core N5    core  49.6523      1.29230      0.00000    
harmonic intra bond
H5    core C6    core  30.1123      1.08500      0.00000    
harmonic intra bond
O5    core S5    core  46.9290      1.43600      0.00000    
harmonic intra bond
C7    core C8    core  32.7315      1.46200      0.00000    
harmonic intra bond
C6    core C8    core  32.7315      1.46200      0.00000    
harmonic intra bond
C5    core C6    core  35.7063      1.43400      0.00000    
harmonic intra bond
C5    core C5    core  41.4911      1.38700      0.00000    
harmonic intra bond
H5    core C7    core  30.1123      1.08500      0.00000    
harmonic intra bond
N5    core N6    core  45.5413      1.35600      0.00000    
harmonic intra bond
C5    core N6    core  38.9413      1.36400      0.00000    
harmonic inter     
O5    core Na5   core  2.00000      2.40000      0.00000      0.000  5.000
epsilon/sigma
C8    core 0.372934E-02  3.81600    
epsilon/sigma
O5    core 0.910653E-02  3.32240    
epsilon/sigma
C7    core 0.372934E-02  3.81600    
epsilon/sigma
C6    core 0.372934E-02  3.81600    
epsilon/sigma
N5    core 0.737195E-02  3.64800    
epsilon/sigma
N6    core 0.737195E-02  3.64800    
epsilon/sigma
C5    core 0.372934E-02  3.81600    
epsilon/sigma
H6    core 0.680822E-03  1.20000    
epsilon/sigma
H5    core 0.650466E-03  2.91800    
epsilon/sigma
S5    core 0.108411E-01  4.00000    
epsilon/sigma
Na5   core 0.120119E-03  3.73600    
three bond intra regular  
N6    core H6    core C5    core 4.2567     116.13    
three bond intra regular  
C6    core C5    core C7    core 5.9175     113.51    
three bond intra regular  
C6    core C5    core N5    core 5.9418     120.72    
three bond intra regular  
C8    core C6    core C7    core 5.7007     112.79    
three bond intra regular  
S5    core C5    core O5    core 3.7103     104.07    
three bond intra regular  
C6    core H5    core C5    core 4.0242     124.04    
three bond intra regular  
C8    core C7    core O5    core 5.9765     125.71    
three bond intra regular  
C5    core C5    core C6    core 5.7232     120.10    
three bond intra regular  
C5    core C5    core N6    core 6.0138     120.13    
three bond intra regular  
C5    core C5    core C5    core 5.8264     119.97    
three bond intra regular  
N6    core H6    core N5    core 4.3434     118.22    
three bond intra regular  
C6    core C8    core N5    core 5.9435     120.89    
three bond intra regular  
C7    core H5    core C6    core 4.1933     122.89    
three bond intra regular  
C5    core H5    core C5    core 4.2029     120.01    
three bond intra regular  
C7    core C6    core C8    core 5.6617     121.32    
three bond intra regular  
N5    core C6    core N6    core 6.1014     118.47    
three bond intra regular  
S5    core O5    core O5    core 4.0468     119.73    
three bond intra regular  
C6    core H5    core C7    core 4.1933     122.89    
three bond intra regular  
C5    core C5    core S5    core 6.8247     120.54    
three bond intra regular  
C7    core H5    core C8    core 4.0754     117.02    
three bond intra regular  
C6    core C5    core C8    core 5.5116     122.95    
three bond intra regular  
C8    core C6    core O5    core 5.9765     125.71    
three bond intra regular  
N6    core C5    core N5    core 5.8820     121.11    
torsion bond intra
H5    cor C7    cor C8    cor O5    cor  0.12467       2 180.00    
torsion bond intra
H5    cor C7    cor C6    cor H5    cor  0.17346       2 180.00    
torsion bond intra
C6    cor C7    cor C8    cor O5    cor  0.12467       2 180.00    
torsion bond intra
H5    cor C5    cor C5    cor H5    cor  0.15720       2 180.00    
torsion bond intra
C5    cor C6    cor N5    cor N6    cor  0.17996       2 180.00    
torsion bond intra
C5    cor C5    cor C5    cor N6    cor  0.15720       2 180.00    
torsion bond intra
C5    cor C5    cor S5    cor O5    cor  0.56374E-01   2 180.00    
torsion bond intra
C6    cor N5    cor N6    cor H6    cor  0.12142       2 180.00    
torsion bond intra
C8    cor C7    cor C6    cor C5    cor  0.17346       2 180.00    
torsion bond intra
N5    cor C6    cor C8    cor O5    cor  0.12467       2 180.00    
torsion bond intra
C5    cor C5    cor C5    cor H5    cor  0.15720       2 180.00    
torsion bond intra
C5    cor C6    cor C8    cor O5    cor  0.12467       2 180.00    
torsion bond intra
C6    cor C7    cor C8    cor C6    cor  0.12467       2 180.00    
torsion bond intra
C8    cor C6    cor N5    cor N6    cor  0.17996       2 180.00    
torsion bond intra
C5    cor C5    cor C5    cor S5    cor  0.15720       2 180.00    
torsion bond intra
C8    cor C7    cor C6    cor H5    cor  0.17346       2 180.00    
torsion bond intra
H5    cor C5    cor C5    cor N6    cor  0.15720       2 180.00    
torsion bond intra
C6    cor C5    cor C5    cor C6    cor  0.15720       2 180.00    
torsion bond intra
C7    cor C8    cor C6    cor N5    cor  0.12467       2 180.00    
torsion bond intra
C5    cor C5    cor N6    cor N5    cor  0.45533E-01   2 180.00    
torsion bond intra
C6    cor C8    cor C7    cor H5    cor  0.12467       2 180.00    
torsion bond intra
C5    cor C6    cor C8    cor C7    cor  0.12467       2 180.00    
torsion bond intra
C5    cor C5    cor C5    cor C6    cor  0.15720       2 180.00    
torsion bond intra
C5    cor N6    cor N5    cor C6    cor  0.12142       2 180.00    
torsion bond intra
C5    cor C5    cor C5    cor C5    cor  0.15720       2 180.00    
torsion bond intra
C5    cor C6    cor C7    cor H5    cor  0.17346       2 180.00    
torsion bond intra
C5    cor C5    cor N6    cor H6    cor  0.45533E-01   2 180.00    
torsion bond intra
H5    cor C5    cor C5    cor S5    cor  0.15720       2 180.00    
torsion bond intra
C5    cor C5    cor C6    cor C7    cor  0.30355E-01   2 180.00    
torsion bond intra
C5    cor C5    cor C6    cor H5    cor  0.30355E-01   2 180.00    
torsion bond intra
C6    cor C5    cor C5    cor H5    cor  0.15720       2 180.00    
torsion bond intra
C8    cor C6    cor C5    cor C5    cor  0.30355E-01   2 180.00    
torsion bond intra
C5    cor C5    cor C6    cor N5    cor  0.30355E-01   2 180.00    
torsion improper intra
C5    cor C6    cor C7    cor H5    cor  0.47701E-01   2 180.00    
torsion improper intra
C6    cor C8    cor C7    cor O5    cor  0.45533       2 180.00    
torsion improper intra
C5    cor N6    cor H6    cor N5    cor  0.47701E-01   2 180.00    
torsion improper intra
C8    cor C6    cor C5    cor N5    cor  0.47701E-01   2 180.00    
torsion improper intra
C5    cor C5    cor C5    cor N6    cor  0.23850E-01   2 180.00    
torsion improper intra
C8    cor C7    cor C6    cor H5    cor  0.47701E-01   2 180.00    
torsion improper intra
C5    cor C5    cor C5    cor H5    cor  0.23850E-01   2 180.00    
torsion improper intra
C5    cor C5    cor C5    cor S5    cor  0.23850E-01   2 180.00    
torsion improper intra
C5    cor C5    cor C5    cor C6    cor  0.23850E-01   2 180.00    
element
covalent Na    0.01000
end
#angstoev  14.39964484602919
cutp     10.00000 mdf    2.00000
slower   0.10000000
switch_min rfo   gnorm     0.000500
dump ssy_dimer_c2prime_m.res                                     
