opti molmec conp phon eckart
dump ssy_dimer_c_i.res
cartesian
O5   core    12.4400000000   16.0910000000   13.0200000000   -0.68180
S5   core    12.2080000000   14.8310000000   13.9070000000    1.14400
O5   core    11.0620000000   14.0040000000   13.2670000000   -0.68180
O5   core    11.7130000000   15.3310000000   15.2930000000   -0.68180
C5   core    13.7500000000   13.8520000000   14.0140000000   -0.07340
C5   core    13.6930000000   12.4300000000   13.9730000000   -0.10090
H5   core    12.7380000000   11.9050000000   13.8820000000    0.14460
C5   core    14.9130000000   11.7040000000   13.9820000000   -0.16780
H5   core    14.8980000000   10.6130000000   13.9190000000    0.11690
C5   core    16.1630000000   12.4070000000   14.0130000000    0.03330
C5   core    16.1990000000   13.8390000000   14.0790000000   -0.16780
H5   core    17.1600000000   14.3540000000   14.0970000000    0.11690
C5   core    14.9840000000   14.5630000000   14.0760000000   -0.10090
H5   core    14.9850000000   15.6550000000   14.0840000000    0.14460
N6   core    17.3600000000   11.6420000000   13.9370000000   -0.09400
H6   core    17.3600000000   10.5980000000   13.8680000000    0.26060
N5   core    18.5660000000   12.2450000000   13.9490000000   -0.09850
C6   core    19.6790000000   11.4720000000   13.9080000000   -0.02040
C5   core    20.9900000000   12.1920000000   13.9230000000   -0.00230
C5   core    21.0740000000   13.6290000000   13.8810000000   -0.22620
H5   core    20.1540000000   14.2160000000   13.8420000000    0.13940
C5   core    22.3270000000   14.2810000000   13.8670000000   -0.05130
H5   core    22.3940000000   15.3690000000   13.8160000000    0.14400
C5   core    23.5210000000   13.4910000000   13.8970000000   -0.11590
C5   core    23.4900000000   12.0800000000   13.9310000000   -0.09350
H5   core    24.4180000000   11.5000000000   13.9040000000    0.12780
C5   core    22.2150000000   11.4120000000   13.9440000000    0.03470
C6   core    22.1520000000    9.9390000000   13.9340000000   -0.11610
H5   core    23.1020000000    9.3940000000   13.9140000000    0.15660
C7   core    20.9490000000    9.2530000000   13.8990000000   -0.36250
H5   core    20.9100000000    8.1610000000   13.8710000000    0.14320
C8   core    19.6470000000    9.9590000000   13.8580000000    0.60810
O5   core    18.5430000000    9.3180000000   13.7820000000   -0.59680
S5   core    25.1290000000   14.3650000000   13.8110000000    1.16590
O5   core    25.1090000000   15.4080000000   12.6550000000   -0.68230
O5   core    26.2920000000   13.3740000000   13.5440000000   -0.68230
O5   core    25.4550000000   15.1420000000   15.1170000000   -0.68230
O5   core    25.2930000000    9.2350000000   12.2380000000   -0.68180
S5   core    24.9630000000    9.4640000000   10.7310000000    1.14400
O5   core    26.1770000000   10.1840000000   10.0880000000   -0.68180
O5   core    24.8280000000    8.0630000000   10.0730000000   -0.68180
C5   core    23.4240000000   10.4290000000   10.5260000000   -0.07340
C5   core    23.4790000000   11.8520000000   10.5650000000   -0.10090
H5   core    24.4380000000   12.3690000000   10.6380000000    0.14460
C5   core    22.2610000000   12.5780000000   10.5350000000   -0.16780
H5   core    22.2730000000   13.6700000000   10.5910000000    0.11690
C5   core    21.0120000000   11.8730000000   10.4830000000    0.03330
C5   core    20.9780000000   10.4410000000   10.4060000000   -0.16780
H5   core    20.0190000000    9.9260000000   10.3540000000    0.11690
C5   core    22.1940000000    9.7170000000   10.4290000000   -0.10090
H5   core    22.2000000000    8.6260000000   10.3860000000    0.14460
N6   core    19.8170000000   12.6410000000   10.5340000000   -0.09400
H6   core    19.8210000000   13.6860000000   10.5940000000    0.26060
N5   core    18.6090000000   12.0430000000   10.5260000000   -0.09850
C6   core    17.5010000000   12.8240000000   10.5620000000   -0.02040
C5   core    16.1850000000   12.1150000000   10.5690000000   -0.00230
C5   core    16.0930000000   10.6800000000   10.6080000000   -0.22620
H5   core    17.0090000000   10.0870000000   10.6110000000    0.13940
C5   core    14.8350000000   10.0360000000   10.6670000000   -0.05130
H5   core    14.7570000000    8.9470000000   10.6990000000    0.14400
C5   core    13.6500000000   10.8340000000   10.6850000000   -0.11590
C5   core    13.6880000000   12.2450000000   10.6320000000   -0.09350
H5   core    12.7630000000   12.8280000000   10.6670000000    0.12780
C5   core    14.9640000000   12.9040000000   10.5730000000    0.03470
C6   core    15.0380000000   14.3760000000   10.5750000000   -0.11610
H5   core    14.0960000000   14.9340000000   10.6070000000    0.15660
C7   core    16.2460000000   15.0550000000   10.5860000000   -0.36250
H5   core    16.2920000000   16.1460000000   10.6120000000    0.14320
C8   core    17.5420000000   14.3380000000   10.6050000000    0.60810
O5   core    18.6520000000   14.9720000000   10.6590000000   -0.59680
S5   core    12.0440000000    9.9920000000   10.9350000000    1.16590
O5   core    11.7060000000    9.8740000000   12.4500000000   -0.68230
O5   core    10.8790000000   10.7500000000   10.2500000000   -0.68230
O5   core    12.0880000000    8.5490000000   10.3580000000   -0.68230
Na5  core    10.3220000000   16.0660000000   13.7720000000    1.00000
Na5  core    10.0890000000    8.8910000000   11.2010000000    1.00000
Na5  core    27.0840000000   15.4800000000   13.6720000000    1.00000
Na5  core    26.8570000000    8.2430000000   10.9140000000    1.00000
switch rfo gnorm 0.05
cutp 10.0 mdf 2.0
element
cova 11 0.01
end

# O5 = o
# S5 = s6
# H5 = ha
# C5 = ca
# N5 = n2
# N6 = nh
# H6 = hn
# C6 = cc
# C7 = cd
# C8 = c

#  1     C8   1.9080   0.0860
#  7     O5  1.6612   0.2100
#  1    C7   1.9080   0.0860
#  2    C6   1.9080   0.0860
#  1    N5   1.8240   0.1700
#  1    N6   1.8240   0.1700
# 12    C5   1.9080   0.0860
#  1    H6   0.6000   0.0157
#  9    H5   1.4590   0.0150
#  2    S5   2.0000   0.2500
#no atom types 10: total atoms 37

epsilon kcal
   C8   0.0860  3.81600
   O5   0.2100  3.32240
   C7   0.0860  3.81600
   C6   0.0860  3.81600
   N5   0.1700  3.64800
   N6   0.1700  3.64800
   C5   0.0860  3.81600
   H6   0.0157  1.20000
   H5   0.0150  2.91800
   S5   0.2500  4.00000
# taken from Joung for SPC/E
# values in paper: Na 1.212 0.3526418
#   Na5  0.3526418 2.424
# decided to use values from Aqvist JPC 1990,94,8021 - these are in parm99.dat
   Na5  0.00277 3.736

lennard epsilon geometric 12 6 x13 kcal all 0.5
100.0

coul o14 1/6
  X  X  7.0
#  1 H6 N6 401.2000   1.0140
#  7 C5 H5 344.3000   1.0870
#  2 C5 S5 263.9000   1.7590
#  1   C8 O5648.0000   1.2140
#  1 C6 C7 504.0000   1.3710
#  1 C6 N5 572.5000   1.2923
#  1 C6 H5 347.2000   1.0850
#  6  O5 S5 541.1000   1.4360
#  1  C8 C7 377.4000   1.4620
#  1  C8 C6 377.4000   1.4620
#  2 C5 C6 411.7000   1.4340
# 12 C5 C5 478.4000   1.3870
#  1 C7 H5 347.2000   1.0850
#  1 N5 N6 525.1000   1.3560
#  1 C5 N6 449.0000   1.3640
#nopots 15: total bonds 39

harm bond kcal
H6 N6    802.400   1.0140 
C5 H5    688.600   1.0870 
C5 S5    527.800   1.7590 
  C8 O5  1296.000   1.2140 
C6 C7   1008.000   1.3710 
C6 N5   1145.000   1.2923 
C6 H5    694.400   1.0850 
 O5 S5   1082.200   1.4360 
 C8 C7    754.800   1.4620 
 C8 C6    754.800   1.4620 
C5 C6    823.400   1.4340 
C5 C5    956.800   1.3870 
C7 H5    694.400   1.0850 
N5 N6   1050.200   1.3560 
C5 N6    898.000   1.3640 

#  1   C5 N6 H6  49.0800 116.1300
#  1   C5 C6 C7  68.2300 113.5100
#  1   C5 C6 N5  68.5100 120.7201
#  1    C6 C8 C7  65.7300 112.7900
#  6    C5 S5 O5 42.7800 104.0700
#  1   C5 C6 H5  46.4000 124.0401
#  1     C7 C8 O5 68.9100 125.7101
#  4   C5 C5 C6  65.9900 120.1001
#  2   C5 C5 N6  69.3400 120.1301
# 12   C5 C5 C5  67.1800 119.9701
#  1   H6 N6 N5  50.0800 118.2201
#  1    C8 C6 N5  68.5300 120.8901
#  1   C6 C7 H5  48.3500 122.8901
# 14   C5 C5 H5  48.4600 120.0101
#  1    C8 C7 C6  65.2800 121.3201
#  1   C6 N5 N6  70.3500 118.4701
#  6     O5 S5 O5 46.6600 119.7301
#  1   C7 C6 H5  48.3500 122.8901
#  4   C5 C5 S5  78.6900 120.5401
#  1    C8 C7 H5  46.9900 117.0201
#  1    C8 C6 C5  63.5500 122.9501
#  1     C6 C8 O5 68.9100 125.7101
#  1   C5 N6 N5  67.8200 121.1101
#nopots 23: total angles 64

three bond kcal
N6 C5 H6     98.160 116.1300 
C6 C5 C7    136.460 113.5100 
C6 C5 N5    137.020 120.7201 
 C8 C6 C7   131.460 112.7900 
S5 C5  O5    85.560 104.0700 
C6 C5 H5     92.800 124.0401 
 C8 C7  O5  137.820 125.7101 
C5 C5 C6    131.980 120.1001 
C5 C5 N6    138.680 120.1301 
C5 C5 C5    134.360 119.9701 
N6 H6 N5    100.160 118.2201 
C6  C8 N5   137.060 120.8901 
C7 C6 H5     96.700 122.8901 
C5 C5 H5     96.920 120.0101 
C7  C8 C6   130.560 121.3201 
N5 C6 N6    140.700 118.4701 
S5  O5 O5    93.320 119.7301 
C6 C7 H5     96.700 122.8901 
C5 C5 S5    157.380 120.5401 
C7  C8 H5   93.980 117.0201 
C6  C8 C5   127.100 122.9501 
 C8 C6  O5  137.820 125.7101 
N6 C5 N5    135.640 121.1101 

#  1 H5 C7 C8 O5  2.8750 180.0001   2.0000
#  1 H5 C7 C6 H5   4.0000 180.0001   2.0000
#  1 C6 C7 C8 O5  2.8750 180.0001   2.0000
#  3 H5 C5 C5 H5   3.6250 180.0001   2.0000
#  1 C5 C6 N5 N6   4.1500 180.0001   2.0000
#  2 C5 C5 C5 N6   3.6250 180.0001   2.0000
# 12 C5 C5 S5 O5  1.3000 180.0001   2.0000
#  1 C6 N5 N6 H6   2.8000 180.0001   2.0000
#  1 C8 C7 C6 C5   4.0000 180.0001   2.0000
#  1 N5 C6 C8 O5  2.8750 180.0001   2.0000
# 14 C5 C5 C5 H5   3.6250 180.0001   2.0000
#  1 C5 C6 C8 O5  2.8750 180.0001   2.0000
#  1 C6 C7 C8 C6   2.8750 180.0001   2.0000
#  1 C8 C6 N5 N6   4.1500 180.0001   2.0000
#  4 C5 C5 C5 S5   3.6250 180.0001   2.0000
#  1 C8 C7 C6 H5   4.0000 180.0001   2.0000
#  2 H5 C5 C5 N6   3.6250 180.0001   2.0000
#  1 C6 C5 C5 C6   3.6250 180.0001   2.0000
#  1 C7 C8 C6 N5   2.8750 180.0001   2.0000
#  2 C5 C5 N6 N5   1.0500 180.0001   2.0000
#  1 C6 C8 C7 H5   2.8750 180.0001   2.0000
#  1 C5 C6 C8 C7   2.8750 180.0001   2.0000
#  4 C5 C5 C5 C6   3.6250 180.0001   2.0000
#  1 C5 N6 N5 C6   2.8000 180.0001   2.0000
# 12 C5 C5 C5 C5   3.6250 180.0001   2.0000
#  1 C5 C6 C7 H5   4.0000 180.0001   2.0000
#  2 C5 C5 N6 H6   1.0500 180.0001   2.0000
#  4 H5 C5 C5 S5   3.6250 180.0001   2.0000
#  2 C5 C5 C6 C7   0.7000 180.0001   2.0000
#  2 C5 C5 C6 H5   0.7000 180.0001   2.0000
#  2 C6 C5 C5 H5   3.6250 180.0001   2.0000
#  2 C8 C6 C5 C5   0.7000 180.0001   2.0000
#  2 C5 C5 C6 N5   0.7000 180.0001   2.0000
#nopots 33: total dihedrals 88

torsion bond kcal
H5 C7 C8 O5     2.8750    2.0000  180.0001
H5 C7 C6 H5     4.0000    2.0000  180.0001
C6 C7 C8 O5     2.8750    2.0000  180.0001
H5 C5 C5 H5     3.6250    2.0000  180.0001
C5 C6 N5 N6     4.1500    2.0000  180.0001
C5 C5 C5 N6     3.6250    2.0000  180.0001
C5 C5 S5 O5     1.3000    2.0000  180.0001
C6 N5 N6 H6     2.8000    2.0000  180.0001
C8 C7 C6 C5     4.0000    2.0000  180.0001
N5 C6 C8 O5     2.8750    2.0000  180.0001
C5 C5 C5 H5     3.6250    2.0000  180.0001
C5 C6 C8 O5     2.8750    2.0000  180.0001
C6 C7 C8 C6     2.8750    2.0000  180.0001
C8 C6 N5 N6     4.1500    2.0000  180.0001
C5 C5 C5 S5     3.6250    2.0000  180.0001
C8 C7 C6 H5     4.0000    2.0000  180.0001
H5 C5 C5 N6     3.6250    2.0000  180.0001
C6 C5 C5 C6     3.6250    2.0000  180.0001
C7 C8 C6 N5     2.8750    2.0000  180.0001
C5 C5 N6 N5     1.0500    2.0000  180.0001
C6 C8 C7 H5     2.8750    2.0000  180.0001
C5 C6 C8 C7     2.8750    2.0000  180.0001
C5 C5 C5 C6     3.6250    2.0000  180.0001
C5 N6 N5 C6     2.8000    2.0000  180.0001
C5 C5 C5 C5     3.6250    2.0000  180.0001
C5 C6 C7 H5     4.0000    2.0000  180.0001
C5 C5 N6 H6     1.0500    2.0000  180.0001
H5 C5 C5 S5     3.6250    2.0000  180.0001
C5 C5 C6 C7     0.7000    2.0000  180.0001
C5 C5 C6 H5     0.7000    2.0000  180.0001
C6 C5 C5 H5     3.6250    2.0000  180.0001
C8 C6 C5 C5     0.7000    2.0000  180.0001
C5 C5 C6 N5     0.7000    2.0000  180.0001

#  1 C5 C7 C6 H5   1.1000 180.0001   2.0000
#  1 C6 C7 C8 O5  10.5000 180.0001   2.0000
#  1 C5 H6 N6 N5   1.1000 180.0001   2.0000
#  1 C8 C5 C6 N5   1.1000 180.0001   2.0000
#  1 C5 C5 C5 N6   1.1000 180.0001   2.0000
#  1 C8 C6 C7 H5   1.1000 180.0001   2.0000
#  7 C5 C5 C5 H5   1.1000 180.0001   2.0000
#  2 C5 C5 C5 S5   1.1000 180.0001   2.0000
#  2 C5 C5 C5 C6   1.1000 180.0001   2.0000
#nopots 9: total impropers 17

torsion improper kcal
C5 C6 C7 H5     1.1000    2.0000  180.0001
C6 C8 C7 O5    10.5000    2.0000  180.0001
C5 N6 H6 N5     1.1000    2.0000  180.0001
C8 C6 C5 N5     1.1000    2.0000  180.0001
C5 C5 C5 N6     0.5500    2.0000  180.0001
C8 C7 C6 H5     1.1000    2.0000  180.0001
C5 C5 C5 H5     0.5500    2.0000  180.0001
C5 C5 C5 S5     0.5500    2.0000  180.0001
C5 C5 C5 C6     0.5500    2.0000  180.0001
harmonic inter
O5    core Na5   core  2.00000      2.40000      0.00000      0.000  5.000

