# 
# Keywords:
# 
opti molmec conp phon eckart lower rfo
# 
# Options:
# 
cartesian region  1   
O5    core 14.988726 4.9404178 10.377484 -0.6818000 1.00000 0.00000             
S5    core 14.687603 5.3865296 11.683583 1.14400000 1.00000 0.00000             
O5    core 13.268239 5.1142516 11.898303 -0.6818000 1.00000 0.00000             
O5    core 15.388974 4.4721903 12.517483 -0.6818000 1.00000 0.00000             
C5    core 15.163300 7.0690856 11.970934 -0.0734000 1.00000 0.00000             
C5    core 14.231524 8.0505820 12.313777 -0.1009000 1.00000 0.00000             
H5    core 13.152713 7.8116578 12.431171 0.14460000 1.00000 0.00000             
C5    core 14.638423 9.3692009 12.507409 -0.1678000 1.00000 0.00000             
H5    core 13.881250 10.145352 12.764691 0.11690000 1.00000 0.00000             
C5    core 15.976366 9.7258219 12.349913 0.03330000 1.00000 0.00000             
C5    core 16.913691 8.7428602 12.018060 -0.1678000 1.00000 0.00000             
H5    core 17.938275 8.9999744 11.888442 0.11690000 1.00000 0.00000             
C5    core 16.507463 7.4220128 11.831351 -0.1009000 1.00000 0.00000             
H5    core 17.203037 6.6614585 11.573100 0.14460000 1.00000 0.00000             
N6    core 16.319861 11.044511 12.476941 -0.0940000 1.00000 0.00000             
H6    core 15.545024 11.721046 12.597920 0.26060000 1.00000 0.00000             
N5    core 17.575711 11.546300 12.328195 -0.0985000 1.00000 0.00000             
C6    core 17.847995 12.824316 12.304580 -0.0204000 1.00000 0.00000             
C5    core 19.231928 13.212466 12.103513 -0.0023000 1.00000 0.00000             
C5    core 20.263002 12.259936 12.070224 -0.2262000 1.00000 0.00000             
H5    core 20.037674 11.189382 12.193454 0.13940000 1.00000 0.00000             
C5    core 21.584936 12.645246 11.861420 -0.0513000 1.00000 0.00000             
H5    core 22.361874 11.868726 11.823582 0.14400000 1.00000 0.00000             
C5    core 21.902001 13.988806 11.677182 -0.1159000 1.00000 0.00000             
C5    core 20.884303 14.941195 11.715605 -0.0935000 1.00000 0.00000             
H5    core 21.146939 15.973442 11.578485 0.12780000 1.00000 0.00000             
C5    core 19.557789 14.564932 11.934880 0.03470000 1.00000 0.00000             
C6    core 18.564542 15.609014 11.988875 -0.1161000 1.00000 0.00000             
H5    core 18.835171 16.647173 11.833935 0.15660000 1.00000 0.00000             
C7    core 17.265218 15.236859 12.258210 -0.3625000 1.00000 0.00000             
H5    core 16.484701 15.979725 12.324914 0.14320000 1.00000 0.00000             
C8    core 16.790380 13.861491 12.435180 0.60810000 1.00000 0.00000             
O5    core 15.611399 13.647521 12.660955 -0.5968000 1.00000 0.00000             
S5    core 23.568103 14.502827 11.380659 1.16589999 1.00000 0.00000             
O5    core 23.758707 14.998331 10.062823 -0.6823000 1.00000 0.00000             
O5    core 23.980764 15.588715 12.201199 -0.6823000 1.00000 0.00000             
O5    core 24.549331 13.450712 11.554609 -0.6823000 1.00000 0.00000             
O5    core 24.944684 9.1167634 10.411881 -0.6818000 1.00000 0.00000             
S5    core 24.831358 9.7202564 9.1404945 1.14400000 1.00000 0.00000             
O5    core 26.041385 10.518660 8.9461665 -0.6818000 1.00000 0.00000             
O5    core 24.947018 8.6228825 8.2412687 -0.6818000 1.00000 0.00000             
C5    core 23.317102 10.612559 8.9260227 -0.0734000 1.00000 0.00000             
C5    core 23.298726 11.980556 8.6485683 -0.1009000 1.00000 0.00000             
H5    core 24.238530 12.562140 8.5342587 0.14460000 1.00000 0.00000             
C5    core 22.086524 12.655967 8.5203304 -0.1678000 1.00000 0.00000             
H5    core 22.086664 13.750485 8.3187235 0.11690000 1.00000 0.00000             
C5    core 20.879646 11.976131 8.6755407 0.03330000 1.00000 0.00000             
C5    core 20.895252 10.602663 8.9375854 -0.1678000 1.00000 0.00000             
H5    core 19.984647 10.068155 9.0700051 0.11690000 1.00000 0.00000             
C5    core 22.108330 9.9264965 9.0615858 -0.1009000 1.00000 0.00000             
H5    core 22.143961 8.8844043 9.2728161 0.14460000 1.00000 0.00000             
N6    core 19.713869 12.691168 8.6172521 -0.0940000 1.00000 0.00000             
H6    core 19.797315 13.717875 8.5442028 0.26060000 1.00000 0.00000             
N5    core 18.466870 12.170923 8.7775648 -0.0985000 1.00000 0.00000             
C6    core 17.382719 12.894651 8.8687064 -0.0204000 1.00000 0.00000             
C5    core 16.124906 12.199017 9.0724716 -0.0023000 1.00000 0.00000             
C5    core 16.049675 10.796972 9.0487936 -0.2262000 1.00000 0.00000             
H5    core 16.953660 10.189859 8.8802375 0.13940000 1.00000 0.00000             
C5    core 14.837947 10.142623 9.2570820 -0.0513000 1.00000 0.00000             
H5    core 14.821461 9.0412947 9.2473048 0.14400000 1.00000 0.00000             
C5    core 13.678750 10.875348 9.4991423 -0.1159000 1.00000 0.00000             
C5    core 13.744521 12.268217 9.5188743 -0.0935000 1.00000 0.00000             
H5    core 12.840259 12.816938 9.6992650 0.12780000 1.00000 0.00000             
C5    core 14.952879 12.932719 9.2999293 0.03470000 1.00000 0.00000             
C6    core 14.936180 14.374851 9.3079138 -0.1161000 1.00000 0.00000             
H5    core 14.021976 14.920361 9.5043533 0.15660000 1.00000 0.00000             
C7    core 16.121410 15.025985 9.0419278 -0.3625000 1.00000 0.00000             
H5    core 16.162074 16.102076 9.0200725 0.14320000 1.00000 0.00000             
C8    core 17.416101 14.379975 8.8069580 0.60810000 1.00000 0.00000             
O5    core 18.405906 15.059028 8.5902367 -0.5968000 1.00000 0.00000             
S5    core 12.131279 10.070457 9.7861309 1.16589999 1.00000 0.00000             
O5    core 11.762736 10.084977 11.161557 -0.6823000 1.00000 0.00000             
O5    core 11.028828 10.687726 9.1377215 -0.6823000 1.00000 0.00000             
O5    core 12.121322 8.6699782 9.4093861 -0.6823000 1.00000 0.00000             
Na5   core 25.971615 15.282345 10.891140 1.00000000 1.00000 0.00000             
Na5   core 9.8878826 8.9102554 10.286761 1.00000000 1.00000 0.00000             
Na5   core 14.104459 2.9188358 11.245211 1.00000000 1.00000 0.00000             
Na5   core 26.966820 8.3223624 9.4687705 1.00000000 1.00000 0.00000             
lenn epsilon geometric 12  6 x13  0.5000
C8    core C8    core  0.000 99.0
lenn epsilon geometric 12  6 x13  0.5000
C8    core O5    core  0.000 99.0
lenn epsilon geometric 12  6 x13  0.5000
O5    core O5    core  0.000 99.0
lenn epsilon geometric 12  6 x13  0.5000
C7    core C8    core  0.000 99.0
lenn epsilon geometric 12  6 x13  0.5000
C7    core O5    core  0.000 99.0
lenn epsilon geometric 12  6 x13  0.5000
C7    core C7    core  0.000 99.0
lenn epsilon geometric 12  6 x13  0.5000
C6    core C8    core  0.000 99.0
lenn epsilon geometric 12  6 x13  0.5000
C6    core O5    core  0.000 99.0
lenn epsilon geometric 12  6 x13  0.5000
C6    core C7    core  0.000 99.0
lenn epsilon geometric 12  6 x13  0.5000
C6    core C6    core  0.000 99.0
lenn epsilon geometric 12  6 x13  0.5000
C8    core N5    core  0.000 99.0
lenn epsilon geometric 12  6 x13  0.5000
N5    core O5    core  0.000 99.0
lenn epsilon geometric 12  6 x13  0.5000
C7    core N5    core  0.000 99.0
lenn epsilon geometric 12  6 x13  0.5000
C6    core N5    core  0.000 99.0
lenn epsilon geometric 12  6 x13  0.5000
N5    core N5    core  0.000 99.0
lenn epsilon geometric 12  6 x13  0.5000
C8    core N6    core  0.000 99.0
lenn epsilon geometric 12  6 x13  0.5000
N6    core O5    core  0.000 99.0
lenn epsilon geometric 12  6 x13  0.5000
C7    core N6    core  0.000 99.0
lenn epsilon geometric 12  6 x13  0.5000
C6    core N6    core  0.000 99.0
lenn epsilon geometric 12  6 x13  0.5000
N5    core N6    core  0.000 99.0
lenn epsilon geometric 12  6 x13  0.5000
N6    core N6    core  0.000 99.0
lenn epsilon geometric 12  6 x13  0.5000
C5    core C8    core  0.000 99.0
lenn epsilon geometric 12  6 x13  0.5000
C5    core O5    core  0.000 99.0
lenn epsilon geometric 12  6 x13  0.5000
C5    core C7    core  0.000 99.0
lenn epsilon geometric 12  6 x13  0.5000
C5    core C6    core  0.000 99.0
lenn epsilon geometric 12  6 x13  0.5000
C5    core N5    core  0.000 99.0
lenn epsilon geometric 12  6 x13  0.5000
C5    core N6    core  0.000 99.0
lenn epsilon geometric 12  6 x13  0.5000
C5    core C5    core  0.000 99.0
lenn epsilon geometric 12  6 x13  0.5000
H6    core C8    core  0.000 99.0
lenn epsilon geometric 12  6 x13  0.5000
H6    core O5    core  0.000 99.0
lenn epsilon geometric 12  6 x13  0.5000
H6    core C7    core  0.000 99.0
lenn epsilon geometric 12  6 x13  0.5000
H6    core C6    core  0.000 99.0
lenn epsilon geometric 12  6 x13  0.5000
H6    core N5    core  0.000 99.0
lenn epsilon geometric 12  6 x13  0.5000
H6    core N6    core  0.000 99.0
lenn epsilon geometric 12  6 x13  0.5000
H6    core C5    core  0.000 99.0
lenn epsilon geometric 12  6 x13  0.5000
H6    core H6    core  0.000 99.0
lenn epsilon geometric 12  6 x13  0.5000
H5    core C8    core  0.000 99.0
lenn epsilon geometric 12  6 x13  0.5000
H5    core O5    core  0.000 99.0
lenn epsilon geometric 12  6 x13  0.5000
H5    core C7    core  0.000 99.0
lenn epsilon geometric 12  6 x13  0.5000
H5    core C6    core  0.000 99.0
lenn epsilon geometric 12  6 x13  0.5000
H5    core N5    core  0.000 99.0
lenn epsilon geometric 12  6 x13  0.5000
H5    core N6    core  0.000 99.0
lenn epsilon geometric 12  6 x13  0.5000
H5    core C5    core  0.000 99.0
lenn epsilon geometric 12  6 x13  0.5000
H5    core H6    core  0.000 99.0
lenn epsilon geometric 12  6 x13  0.5000
H5    core H5    core  0.000 99.0
lenn epsilon geometric 12  6 x13  0.5000
C8    core S5    core  0.000 99.0
lenn epsilon geometric 12  6 x13  0.5000
O5    core S5    core  0.000 99.0
lenn epsilon geometric 12  6 x13  0.5000
C7    core S5    core  0.000 99.0
lenn epsilon geometric 12  6 x13  0.5000
C6    core S5    core  0.000 99.0
lenn epsilon geometric 12  6 x13  0.5000
N5    core S5    core  0.000 99.0
lenn epsilon geometric 12  6 x13  0.5000
N6    core S5    core  0.000 99.0
lenn epsilon geometric 12  6 x13  0.5000
C5    core S5    core  0.000 99.0
lenn epsilon geometric 12  6 x13  0.5000
H6    core S5    core  0.000 99.0
lenn epsilon geometric 12  6 x13  0.5000
H5    core S5    core  0.000 99.0
lenn epsilon geometric 12  6 x13  0.5000
S5    core S5    core  0.000 99.0
lenn epsilon geometric 12  6 x13  0.5000
C8    core Na5   core  0.000 99.0
lenn epsilon geometric 12  6 x13  0.5000
O5    core Na5   core  0.000 99.0
lenn epsilon geometric 12  6 x13  0.5000
C7    core Na5   core  0.000 99.0
lenn epsilon geometric 12  6 x13  0.5000
C6    core Na5   core  0.000 99.0
lenn epsilon geometric 12  6 x13  0.5000
N5    core Na5   core  0.000 99.0
lenn epsilon geometric 12  6 x13  0.5000
N6    core Na5   core  0.000 99.0
lenn epsilon geometric 12  6 x13  0.5000
C5    core Na5   core  0.000 99.0
lenn epsilon geometric 12  6 x13  0.5000
H6    core Na5   core  0.000 99.0
lenn epsilon geometric 12  6 x13  0.5000
H5    core Na5   core  0.000 99.0
lenn epsilon geometric 12  6 x13  0.5000
Na5   core S5    core  0.000 99.0
lenn epsilon geometric 12  6 x13  0.5000
Na5   core Na5   core  0.000 99.0
coulomb intra o14  0.1667
X     core X     core  1.0000 0.000  7.000
harmonic intra bond
H6    core N6    core  34.7956      1.01400      0.00000    
harmonic intra bond
H5    core C5    core  29.8607      1.08700      0.00000    
harmonic intra bond
C5    core S5    core  22.8877      1.75900      0.00000    
harmonic intra bond
C8    core O5    core  56.2003      1.21400      0.00000    
harmonic intra bond
C6    core C7    core  43.7113      1.37100      0.00000    
harmonic intra bond
C6    core N5    core  49.6523      1.29230      0.00000    
harmonic intra bond
H5    core C6    core  30.1123      1.08500      0.00000    
harmonic intra bond
O5    core S5    core  46.9290      1.43600      0.00000    
harmonic intra bond
C7    core C8    core  32.7315      1.46200      0.00000    
harmonic intra bond
C6    core C8    core  32.7315      1.46200      0.00000    
harmonic intra bond
C5    core C6    core  35.7063      1.43400      0.00000    
harmonic intra bond
C5    core C5    core  41.4911      1.38700      0.00000    
harmonic intra bond
H5    core C7    core  30.1123      1.08500      0.00000    
harmonic intra bond
N5    core N6    core  45.5413      1.35600      0.00000    
harmonic intra bond
C5    core N6    core  38.9413      1.36400      0.00000    
harmonic inter     
O5    core Na5   core  2.00000      2.40000      0.00000      0.000  5.000
epsilon/sigma
C8    core 0.372934E-02  3.81600    
epsilon/sigma
O5    core 0.910653E-02  3.32240    
epsilon/sigma
C7    core 0.372934E-02  3.81600    
epsilon/sigma
C6    core 0.372934E-02  3.81600    
epsilon/sigma
N5    core 0.737195E-02  3.64800    
epsilon/sigma
N6    core 0.737195E-02  3.64800    
epsilon/sigma
C5    core 0.372934E-02  3.81600    
epsilon/sigma
H6    core 0.680822E-03  1.20000    
epsilon/sigma
H5    core 0.650466E-03  2.91800    
epsilon/sigma
S5    core 0.108411E-01  4.00000    
epsilon/sigma
Na5   core 0.120119E-03  3.73600    
three bond intra regular  
N6    core H6    core C5    core 4.2567     116.13    
three bond intra regular  
C6    core C5    core C7    core 5.9175     113.51    
three bond intra regular  
C6    core C5    core N5    core 5.9418     120.72    
three bond intra regular  
C8    core C6    core C7    core 5.7007     112.79    
three bond intra regular  
S5    core C5    core O5    core 3.7103     104.07    
three bond intra regular  
C6    core H5    core C5    core 4.0242     124.04    
three bond intra regular  
C8    core C7    core O5    core 5.9765     125.71    
three bond intra regular  
C5    core C5    core C6    core 5.7232     120.10    
three bond intra regular  
C5    core C5    core N6    core 6.0138     120.13    
three bond intra regular  
C5    core C5    core C5    core 5.8264     119.97    
three bond intra regular  
N6    core H6    core N5    core 4.3434     118.22    
three bond intra regular  
C6    core C8    core N5    core 5.9435     120.89    
three bond intra regular  
C7    core H5    core C6    core 4.1933     122.89    
three bond intra regular  
C5    core H5    core C5    core 4.2029     120.01    
three bond intra regular  
C7    core C6    core C8    core 5.6617     121.32    
three bond intra regular  
N5    core C6    core N6    core 6.1014     118.47    
three bond intra regular  
S5    core O5    core O5    core 4.0468     119.73    
three bond intra regular  
C6    core H5    core C7    core 4.1933     122.89    
three bond intra regular  
C5    core C5    core S5    core 6.8247     120.54    
three bond intra regular  
C7    core H5    core C8    core 4.0754     117.02    
three bond intra regular  
C6    core C5    core C8    core 5.5116     122.95    
three bond intra regular  
C8    core C6    core O5    core 5.9765     125.71    
three bond intra regular  
N6    core C5    core N5    core 5.8820     121.11    
torsion bond intra
H5    cor C7    cor C8    cor O5    cor  0.12467       2 180.00    
torsion bond intra
H5    cor C7    cor C6    cor H5    cor  0.17346       2 180.00    
torsion bond intra
C6    cor C7    cor C8    cor O5    cor  0.12467       2 180.00    
torsion bond intra
H5    cor C5    cor C5    cor H5    cor  0.15720       2 180.00    
torsion bond intra
C5    cor C6    cor N5    cor N6    cor  0.17996       2 180.00    
torsion bond intra
C5    cor C5    cor C5    cor N6    cor  0.15720       2 180.00    
torsion bond intra
C5    cor C5    cor S5    cor O5    cor  0.56374E-01   2 180.00    
torsion bond intra
C6    cor N5    cor N6    cor H6    cor  0.12142       2 180.00    
torsion bond intra
C8    cor C7    cor C6    cor C5    cor  0.17346       2 180.00    
torsion bond intra
N5    cor C6    cor C8    cor O5    cor  0.12467       2 180.00    
torsion bond intra
C5    cor C5    cor C5    cor H5    cor  0.15720       2 180.00    
torsion bond intra
C5    cor C6    cor C8    cor O5    cor  0.12467       2 180.00    
torsion bond intra
C6    cor C7    cor C8    cor C6    cor  0.12467       2 180.00    
torsion bond intra
C8    cor C6    cor N5    cor N6    cor  0.17996       2 180.00    
torsion bond intra
C5    cor C5    cor C5    cor S5    cor  0.15720       2 180.00    
torsion bond intra
C8    cor C7    cor C6    cor H5    cor  0.17346       2 180.00    
torsion bond intra
H5    cor C5    cor C5    cor N6    cor  0.15720       2 180.00    
torsion bond intra
C6    cor C5    cor C5    cor C6    cor  0.15720       2 180.00    
torsion bond intra
C7    cor C8    cor C6    cor N5    cor  0.12467       2 180.00    
torsion bond intra
C5    cor C5    cor N6    cor N5    cor  0.45533E-01   2 180.00    
torsion bond intra
C6    cor C8    cor C7    cor H5    cor  0.12467       2 180.00    
torsion bond intra
C5    cor C6    cor C8    cor C7    cor  0.12467       2 180.00    
torsion bond intra
C5    cor C5    cor C5    cor C6    cor  0.15720       2 180.00    
torsion bond intra
C5    cor N6    cor N5    cor C6    cor  0.12142       2 180.00    
torsion bond intra
C5    cor C5    cor C5    cor C5    cor  0.15720       2 180.00    
torsion bond intra
C5    cor C6    cor C7    cor H5    cor  0.17346       2 180.00    
torsion bond intra
C5    cor C5    cor N6    cor H6    cor  0.45533E-01   2 180.00    
torsion bond intra
H5    cor C5    cor C5    cor S5    cor  0.15720       2 180.00    
torsion bond intra
C5    cor C5    cor C6    cor C7    cor  0.30355E-01   2 180.00    
torsion bond intra
C5    cor C5    cor C6    cor H5    cor  0.30355E-01   2 180.00    
torsion bond intra
C6    cor C5    cor C5    cor H5    cor  0.15720       2 180.00    
torsion bond intra
C8    cor C6    cor C5    cor C5    cor  0.30355E-01   2 180.00    
torsion bond intra
C5    cor C5    cor C6    cor N5    cor  0.30355E-01   2 180.00    
torsion improper intra
C5    cor C6    cor C7    cor H5    cor  0.47701E-01   2 180.00    
torsion improper intra
C6    cor C8    cor C7    cor O5    cor  0.45533       2 180.00    
torsion improper intra
C5    cor N6    cor H6    cor N5    cor  0.47701E-01   2 180.00    
torsion improper intra
C8    cor C6    cor C5    cor N5    cor  0.47701E-01   2 180.00    
torsion improper intra
C5    cor C5    cor C5    cor N6    cor  0.23850E-01   2 180.00    
torsion improper intra
C8    cor C7    cor C6    cor H5    cor  0.47701E-01   2 180.00    
torsion improper intra
C5    cor C5    cor C5    cor H5    cor  0.23850E-01   2 180.00    
torsion improper intra
C5    cor C5    cor C5    cor S5    cor  0.23850E-01   2 180.00    
torsion improper intra
C5    cor C5    cor C5    cor C6    cor  0.23850E-01   2 180.00    
element
covalent Na    0.01000
end
#angstoev  14.39964484602919
cutp     10.00000 mdf    2.00000
slower   0.10000000
switch_min rfo   gnorm     0.000500
dump ssy_dimer_c2prime_p.res                                     
