opti molmec conp phon eckart
dump ssy_dimer_c_s.res
cartesian
O5   core    24.7380000000    8.7470000000   16.4820000000   -0.68180
S5   core    24.8730000000    9.3200000000   15.0430000000    1.14400
O5   core    26.0830000000   10.2920000000   15.0350000000   -0.68180
O5   core    25.1960000000    8.1290000000   14.1040000000   -0.68180
C5   core    23.3370000000   10.1930000000   14.5600000000   -0.07340
C5   core    23.3870000000   11.5930000000   14.3170000000   -0.10090
H5   core    24.3460000000   12.1130000000   14.3390000000    0.14460
C5   core    22.1740000000   12.2880000000   14.0730000000   -0.16780
H5   core    22.1830000000   13.3690000000   13.9000000000    0.11690
C5   core    20.9290000000   11.5780000000   14.0840000000    0.03330
C5   core    20.9010000000   10.1570000000   14.2890000000   -0.16780
H5   core    19.9440000000    9.6330000000   14.2800000000    0.11690
C5   core    22.1110000000    9.4640000000   14.5310000000   -0.10090
H5   core    22.1090000000    8.3870000000   14.7120000000    0.14460
N6   core    19.7350000000   12.3340000000   13.9190000000   -0.09400
H6   core    19.7390000000   13.3790000000   13.8420000000    0.26060
N5   core    18.5240000000   11.7450000000   13.9920000000   -0.09850
C6   core    17.4200000000   12.5300000000   13.9580000000   -0.02040
C5   core    16.1020000000   11.8330000000   14.0720000000   -0.00230
C5   core    15.9920000000   10.4010000000   14.1390000000   -0.22620
H5   core    16.8960000000    9.7960000000   14.0480000000    0.13940
C5   core    14.7410000000    9.7750000000   14.3450000000   -0.05130
H5   core    14.6520000000    8.6890000000   14.4100000000    0.14400
C5   core    13.5740000000   10.5900000000   14.4740000000   -0.11590
C5   core    13.6230000000   11.9960000000   14.3510000000   -0.09350
H5   core    12.7070000000   12.5860000000   14.4280000000    0.12780
C5   core    14.8920000000   12.6360000000   14.1460000000    0.03470
C6   core    14.9760000000   14.1030000000   14.0520000000   -0.11610
H5   core    14.0370000000   14.6660000000   14.0880000000    0.15660
C7   core    16.1820000000   14.7710000000   13.9280000000   -0.36250
H5   core    16.2370000000   15.8610000000   13.8600000000    0.14320
C8   core    17.4720000000   14.0420000000   13.8830000000    0.60810
O5   core    18.5800000000   14.6700000000   13.7950000000   -0.59680
S5   core    11.9940000000    9.8060000000   14.9630000000    1.16590
O5   core    11.8910000000    9.6950000000   16.5120000000   -0.68230
O5   core    10.7770000000   10.6370000000   14.4790000000   -0.68230
O5   core    11.8810000000    8.3690000000   14.3890000000   -0.68230
O5   core    25.1080000000    9.6030000000    7.8110000000   -0.68180
S5   core    24.9340000000    9.4880000000    9.3540000000    1.14400
O5   core    26.2090000000   10.0860000000   10.0020000000   -0.68180
O5   core    24.8530000000    7.9790000000    9.7010000000   -0.68180
C5   core    23.4240000000   10.3620000000    9.9050000000   -0.07340
C5   core    23.4790000000   11.7710000000   10.1020000000   -0.10090
H5   core    24.4350000000   12.2950000000   10.0460000000    0.14460
C5   core    22.2730000000   12.4700000000   10.3570000000   -0.16780
H5   core    22.2810000000   13.5560000000   10.4910000000    0.11690
C5   core    21.0280000000   11.7560000000   10.3990000000    0.03330
C5   core    20.9980000000   10.3300000000   10.2560000000   -0.16780
H5   core    20.0450000000    9.8030000000   10.3130000000    0.11690
C5   core    22.2050000000    9.6310000000   10.0030000000   -0.10090
H5   core    22.2130000000    8.5480000000    9.8710000000    0.14460
N6   core    19.8420000000   12.5250000000   10.5510000000   -0.09400
H6   core    19.8580000000   13.5730000000   10.5780000000    0.26060
N5   core    18.6230000000   11.9520000000   10.4750000000   -0.09850
C6   core    17.5380000000   12.7680000000   10.4490000000   -0.02040
C5   core    16.2050000000   12.1040000000   10.3210000000   -0.00230
C5   core    16.0560000000   10.6740000000   10.3140000000   -0.22620
H5   core    16.9370000000   10.0480000000   10.4700000000    0.13940
C5   core    14.7950000000   10.0740000000   10.0810000000   -0.05130
H5   core    14.6760000000    8.9890000000   10.0570000000    0.14400
C5   core    13.6590000000   10.9140000000    9.8680000000   -0.11590
C5   core    13.7450000000   12.3230000000    9.9330000000   -0.09350
H5   core    12.8500000000   12.9360000000    9.7940000000    0.12780
C5   core    15.0230000000   12.9360000000   10.1610000000    0.03470
C6   core    15.1470000000   14.4040000000   10.1880000000   -0.11610
H5   core    14.2290000000   14.9910000000   10.0880000000    0.15660
C7   core    16.3680000000   15.0430000000   10.3240000000   -0.36250
H5   core    16.4540000000   16.1320000000   10.3380000000    0.14320
C8   core    17.6330000000   14.2800000000   10.4480000000    0.60810
O5   core    18.7570000000   14.8810000000   10.5310000000   -0.59680
S5   core    12.0660000000   10.1560000000    9.3690000000    1.16590
O5   core    11.8970000000   10.1780000000    7.8220000000   -0.68230
O5   core    10.8650000000   10.9270000000    9.9750000000   -0.68230
O5   core    11.9890000000    8.6740000000    9.8180000000   -0.68230
Na5  core    26.7460000000    8.2610000000   15.7010000000    1.00000
Na5  core    10.1290000000    9.2170000000    8.7090000000    1.00000
Na5  core    10.0750000000    8.8350000000   15.6250000000    1.00000
Na5  core    26.7650000000    8.4070000000    8.6120000000    1.00000
#switch rfo gnorm 0.05
cutp 10.0 mdf 2.0
element
cova 11 0.01
end

# O5 = o
# S5 = s6
# H5 = ha
# C5 = ca
# N5 = n2
# N6 = nh
# H6 = hn
# C6 = cc
# C7 = cd
# C8 = c

#  1     C8   1.9080   0.0860
#  7     O5  1.6612   0.2100
#  1    C7   1.9080   0.0860
#  2    C6   1.9080   0.0860
#  1    N5   1.8240   0.1700
#  1    N6   1.8240   0.1700
# 12    C5   1.9080   0.0860
#  1    H6   0.6000   0.0157
#  9    H5   1.4590   0.0150
#  2    S5   2.0000   0.2500
#no atom types 10: total atoms 37

epsilon kcal
   C8   0.0860  3.81600
   O5   0.2100  3.32240
   C7   0.0860  3.81600
   C6   0.0860  3.81600
   N5   0.1700  3.64800
   N6   0.1700  3.64800
   C5   0.0860  3.81600
   H6   0.0157  1.20000
   H5   0.0150  2.91800
   S5   0.2500  4.00000
# taken from Joung for SPC/E
# values in paper: Na 1.212 0.3526418
#   Na5  0.3526418 2.424
# decided to use values from Aqvist JPC 1990,94,8021 - these are in parm99.dat
   Na5  0.00277 3.736

lennard epsilon geometric 12 6 x13 kcal all 0.5
99.0

coul o14 1/6
  X  X  7.0
#  1 H6 N6 401.2000   1.0140
#  7 C5 H5 344.3000   1.0870
#  2 C5 S5 263.9000   1.7590
#  1   C8 O5648.0000   1.2140
#  1 C6 C7 504.0000   1.3710
#  1 C6 N5 572.5000   1.2923
#  1 C6 H5 347.2000   1.0850
#  6  O5 S5 541.1000   1.4360
#  1  C8 C7 377.4000   1.4620
#  1  C8 C6 377.4000   1.4620
#  2 C5 C6 411.7000   1.4340
# 12 C5 C5 478.4000   1.3870
#  1 C7 H5 347.2000   1.0850
#  1 N5 N6 525.1000   1.3560
#  1 C5 N6 449.0000   1.3640
#nopots 15: total bonds 39

harm bond kcal
H6 N6    802.400   1.0140 
C5 H5    688.600   1.0870 
C5 S5    527.800   1.7590 
  C8 O5  1296.000   1.2140 
C6 C7   1008.000   1.3710 
C6 N5   1145.000   1.2923 
C6 H5    694.400   1.0850 
 O5 S5   1082.200   1.4360 
 C8 C7    754.800   1.4620 
 C8 C6    754.800   1.4620 
C5 C6    823.400   1.4340 
C5 C5    956.800   1.3870 
C7 H5    694.400   1.0850 
N5 N6   1050.200   1.3560 
C5 N6    898.000   1.3640 

#  1   C5 N6 H6  49.0800 116.1300
#  1   C5 C6 C7  68.2300 113.5100
#  1   C5 C6 N5  68.5100 120.7201
#  1    C6 C8 C7  65.7300 112.7900
#  6    C5 S5 O5 42.7800 104.0700
#  1   C5 C6 H5  46.4000 124.0401
#  1     C7 C8 O5 68.9100 125.7101
#  4   C5 C5 C6  65.9900 120.1001
#  2   C5 C5 N6  69.3400 120.1301
# 12   C5 C5 C5  67.1800 119.9701
#  1   H6 N6 N5  50.0800 118.2201
#  1    C8 C6 N5  68.5300 120.8901
#  1   C6 C7 H5  48.3500 122.8901
# 14   C5 C5 H5  48.4600 120.0101
#  1    C8 C7 C6  65.2800 121.3201
#  1   C6 N5 N6  70.3500 118.4701
#  6     O5 S5 O5 46.6600 119.7301
#  1   C7 C6 H5  48.3500 122.8901
#  4   C5 C5 S5  78.6900 120.5401
#  1    C8 C7 H5  46.9900 117.0201
#  1    C8 C6 C5  63.5500 122.9501
#  1     C6 C8 O5 68.9100 125.7101
#  1   C5 N6 N5  67.8200 121.1101
#nopots 23: total angles 64

three bond kcal
N6 C5 H6     98.160 116.1300 
C6 C5 C7    136.460 113.5100 
C6 C5 N5    137.020 120.7201 
 C8 C6 C7   131.460 112.7900 
S5 C5  O5    85.560 104.0700 
C6 C5 H5     92.800 124.0401 
 C8 C7  O5  137.820 125.7101 
C5 C5 C6    131.980 120.1001 
C5 C5 N6    138.680 120.1301 
C5 C5 C5    134.360 119.9701 
N6 H6 N5    100.160 118.2201 
C6  C8 N5   137.060 120.8901 
C7 C6 H5     96.700 122.8901 
C5 C5 H5     96.920 120.0101 
C7  C8 C6   130.560 121.3201 
N5 C6 N6    140.700 118.4701 
S5  O5 O5    93.320 119.7301 
C6 C7 H5     96.700 122.8901 
C5 C5 S5    157.380 120.5401 
C7  C8 H5   93.980 117.0201 
C6  C8 C5   127.100 122.9501 
 C8 C6  O5  137.820 125.7101 
N6 C5 N5    135.640 121.1101 

#  1 H5 C7 C8 O5  2.8750 180.0001   2.0000
#  1 H5 C7 C6 H5   4.0000 180.0001   2.0000
#  1 C6 C7 C8 O5  2.8750 180.0001   2.0000
#  3 H5 C5 C5 H5   3.6250 180.0001   2.0000
#  1 C5 C6 N5 N6   4.1500 180.0001   2.0000
#  2 C5 C5 C5 N6   3.6250 180.0001   2.0000
# 12 C5 C5 S5 O5  1.3000 180.0001   2.0000
#  1 C6 N5 N6 H6   2.8000 180.0001   2.0000
#  1 C8 C7 C6 C5   4.0000 180.0001   2.0000
#  1 N5 C6 C8 O5  2.8750 180.0001   2.0000
# 14 C5 C5 C5 H5   3.6250 180.0001   2.0000
#  1 C5 C6 C8 O5  2.8750 180.0001   2.0000
#  1 C6 C7 C8 C6   2.8750 180.0001   2.0000
#  1 C8 C6 N5 N6   4.1500 180.0001   2.0000
#  4 C5 C5 C5 S5   3.6250 180.0001   2.0000
#  1 C8 C7 C6 H5   4.0000 180.0001   2.0000
#  2 H5 C5 C5 N6   3.6250 180.0001   2.0000
#  1 C6 C5 C5 C6   3.6250 180.0001   2.0000
#  1 C7 C8 C6 N5   2.8750 180.0001   2.0000
#  2 C5 C5 N6 N5   1.0500 180.0001   2.0000
#  1 C6 C8 C7 H5   2.8750 180.0001   2.0000
#  1 C5 C6 C8 C7   2.8750 180.0001   2.0000
#  4 C5 C5 C5 C6   3.6250 180.0001   2.0000
#  1 C5 N6 N5 C6   2.8000 180.0001   2.0000
# 12 C5 C5 C5 C5   3.6250 180.0001   2.0000
#  1 C5 C6 C7 H5   4.0000 180.0001   2.0000
#  2 C5 C5 N6 H6   1.0500 180.0001   2.0000
#  4 H5 C5 C5 S5   3.6250 180.0001   2.0000
#  2 C5 C5 C6 C7   0.7000 180.0001   2.0000
#  2 C5 C5 C6 H5   0.7000 180.0001   2.0000
#  2 C6 C5 C5 H5   3.6250 180.0001   2.0000
#  2 C8 C6 C5 C5   0.7000 180.0001   2.0000
#  2 C5 C5 C6 N5   0.7000 180.0001   2.0000
#nopots 33: total dihedrals 88

torsion bond kcal
H5 C7 C8 O5     2.8750    2.0000  180.0001
H5 C7 C6 H5     4.0000    2.0000  180.0001
C6 C7 C8 O5     2.8750    2.0000  180.0001
H5 C5 C5 H5     3.6250    2.0000  180.0001
C5 C6 N5 N6     4.1500    2.0000  180.0001
C5 C5 C5 N6     3.6250    2.0000  180.0001
C5 C5 S5 O5     1.3000    2.0000  180.0001
C6 N5 N6 H6     2.8000    2.0000  180.0001
C8 C7 C6 C5     4.0000    2.0000  180.0001
N5 C6 C8 O5     2.8750    2.0000  180.0001
C5 C5 C5 H5     3.6250    2.0000  180.0001
C5 C6 C8 O5     2.8750    2.0000  180.0001
C6 C7 C8 C6     2.8750    2.0000  180.0001
C8 C6 N5 N6     4.1500    2.0000  180.0001
C5 C5 C5 S5     3.6250    2.0000  180.0001
C8 C7 C6 H5     4.0000    2.0000  180.0001
H5 C5 C5 N6     3.6250    2.0000  180.0001
C6 C5 C5 C6     3.6250    2.0000  180.0001
C7 C8 C6 N5     2.8750    2.0000  180.0001
C5 C5 N6 N5     1.0500    2.0000  180.0001
C6 C8 C7 H5     2.8750    2.0000  180.0001
C5 C6 C8 C7     2.8750    2.0000  180.0001
C5 C5 C5 C6     3.6250    2.0000  180.0001
C5 N6 N5 C6     2.8000    2.0000  180.0001
C5 C5 C5 C5     3.6250    2.0000  180.0001
C5 C6 C7 H5     4.0000    2.0000  180.0001
C5 C5 N6 H6     1.0500    2.0000  180.0001
H5 C5 C5 S5     3.6250    2.0000  180.0001
C5 C5 C6 C7     0.7000    2.0000  180.0001
C5 C5 C6 H5     0.7000    2.0000  180.0001
C6 C5 C5 H5     3.6250    2.0000  180.0001
C8 C6 C5 C5     0.7000    2.0000  180.0001
C5 C5 C6 N5     0.7000    2.0000  180.0001

#  1 C5 C7 C6 H5   1.1000 180.0001   2.0000
#  1 C6 C7 C8 O5  10.5000 180.0001   2.0000
#  1 C5 H6 N6 N5   1.1000 180.0001   2.0000
#  1 C8 C5 C6 N5   1.1000 180.0001   2.0000
#  1 C5 C5 C5 N6   1.1000 180.0001   2.0000
#  1 C8 C6 C7 H5   1.1000 180.0001   2.0000
#  7 C5 C5 C5 H5   1.1000 180.0001   2.0000
#  2 C5 C5 C5 S5   1.1000 180.0001   2.0000
#  2 C5 C5 C5 C6   1.1000 180.0001   2.0000
#nopots 9: total impropers 17

torsion improper kcal
C5 C6 C7 H5     1.1000    2.0000  180.0001
C6 C8 C7 O5    10.5000    2.0000  180.0001
C5 N6 H6 N5     1.1000    2.0000  180.0001
C8 C6 C5 N5     1.1000    2.0000  180.0001
C5 C5 C5 N6     0.5500    2.0000  180.0001
C8 C7 C6 H5     1.1000    2.0000  180.0001
C5 C5 C5 H5     0.5500    2.0000  180.0001
C5 C5 C5 S5     0.5500    2.0000  180.0001
C5 C5 C5 C6     0.5500    2.0000  180.0001
harmonic inter
O5    core Na5   core  2.00000      2.40000      0.00000      0.000  5.000

