opti molmec conp phon eckart
dump ssy_dimer_c_2.res
cartesian
O5   core    24.4730000000   14.0240000000   10.4520000000   -0.68180
S5   core    24.0030000000   14.1210000000   11.9340000000    1.14400
O5   core    25.0960000000   13.4580000000   12.8120000000   -0.68180
O5   core    23.9340000000   15.6300000000   12.3020000000   -0.68180
C5   core    22.3710000000   13.3350000000   12.1720000000   -0.07340
C5   core    22.2990000000   11.9200000000   12.3100000000   -0.10090
H5   core    23.2050000000   11.3080000000   12.3240000000    0.14460
C5   core    21.0180000000   11.3170000000   12.3880000000   -0.16780
H5   core    20.9290000000   10.2310000000   12.4780000000    0.11690
C5   core    19.8370000000   12.1270000000   12.3110000000    0.03330
C5   core    19.9290000000   13.5520000000   12.1810000000   -0.16780
H5   core    19.0200000000   14.1510000000   12.1150000000    0.11690
C5   core    21.2080000000   14.1580000000   12.1160000000   -0.10090
H5   core    21.3140000000   15.2410000000   12.0170000000    0.14460
N6   core    18.5850000000   11.4570000000   12.3320000000   -0.09400
H6   core    18.5080000000   10.4120000000   12.3160000000    0.26060
N5   core    17.4250000000   12.1430000000   12.3470000000   -0.09850
C6   core    16.2650000000   11.4400000000   12.3530000000   -0.02040
C5   core    15.0040000000   12.2410000000   12.3650000000   -0.00230
C5   core    15.0140000000   13.6790000000   12.4010000000   -0.22620
H5   core    15.9710000000   14.2020000000   12.4610000000    0.13940
C5   core    13.8110000000   14.4140000000   12.3260000000   -0.05130
H5   core    13.8140000000   15.5060000000   12.3350000000    0.14400
C5   core    12.5740000000   13.7050000000   12.2180000000   -0.11590
C5   core    12.5070000000   12.2930000000   12.2310000000   -0.09350
H5   core    11.5470000000   11.7760000000   12.1490000000    0.12780
C5   core    13.7300000000   11.5430000000   12.3150000000    0.03470
C6   core    13.6970000000   10.0700000000   12.3010000000   -0.11610
H5   core    12.7160000000    9.5880000000   12.2380000000    0.15660
C7   core    14.8540000000    9.3070000000   12.3120000000   -0.36250
H5   core    14.8220000000    8.2150000000   12.2820000000    0.14320
C8   core    16.1980000000    9.9280000000   12.3090000000    0.60810
O5   core    17.2600000000    9.2150000000   12.2550000000   -0.59680
S5   core    11.0510000000   14.6730000000   11.9190000000    1.16590
O5   core    10.8980000000   15.0330000000   10.4080000000   -0.68230
O5   core     9.7800000000   13.8890000000   12.3380000000   -0.68230
O5   core    11.0770000000   16.0130000000   12.7050000000   -0.68230
O5   core    24.3780000000    9.3320000000   10.8770000000   -0.68180
S5   core    23.9210000000    9.2480000000    9.3900000000    1.14400
O5   core    25.0750000000    9.8020000000    8.5140000000   -0.68180
O5   core    23.7360000000    7.7430000000    9.0500000000   -0.68180
C5   core    22.3640000000   10.1690000000    9.1220000000   -0.07340
C5   core    22.4150000000   11.5850000000    8.9900000000   -0.10090
H5   core    23.3680000000   12.1190000000    8.9930000000    0.14460
C5   core    21.1920000000   12.2970000000    8.9000000000   -0.16780
H5   core    21.2000000000   13.3880000000    8.8180000000    0.11690
C5   core    19.9460000000   11.5910000000    8.9600000000    0.03330
C5   core    19.9150000000   10.1620000000    9.0800000000   -0.16780
H5   core    18.9570000000    9.6430000000    9.1300000000    0.11690
C5   core    21.1360000000    9.4470000000    9.1580000000   -0.10090
H5   core    21.1480000000    8.3600000000    9.2540000000    0.14460
N6   core    18.7490000000   12.3590000000    8.9340000000   -0.09400
H6   core    18.7480000000   13.4050000000    8.9640000000    0.26060
N5   core    17.5460000000   11.7550000000    8.8840000000   -0.09850
C6   core    16.4310000000   12.5230000000    8.8680000000   -0.02040
C5   core    15.1300000000   11.7920000000    8.8200000000   -0.00230
C5   core    15.0680000000   10.3560000000    8.7820000000   -0.22620
H5   core    15.9980000000    9.7840000000    8.7530000000    0.13940
C5   core    13.8270000000    9.6840000000    8.8110000000   -0.05130
H5   core    13.7720000000    8.5940000000    8.7970000000    0.14400
C5   core    12.6260000000   10.4570000000    8.8760000000   -0.11590
C5   core    12.6310000000   11.8710000000    8.8710000000   -0.09350
H5   core    11.6970000000   12.4360000000    8.9210000000    0.12780
C5   core    13.8940000000   12.5570000000    8.8360000000    0.03470
C6   core    13.9420000000   14.0310000000    8.8600000000   -0.11610
H5   core    12.9870000000   14.5670000000    8.8910000000    0.15660
C7   core    15.1400000000   14.7290000000    8.8920000000   -0.36250
H5   core    15.1660000000   15.8210000000    8.9320000000    0.14320
C8   core    16.4490000000   14.0360000000    8.9290000000    0.60810
O5   core    17.5480000000   14.6850000000    9.0200000000   -0.59680
S5   core    11.0490000000    9.5590000000    9.1110000000    1.16590
O5   core    10.7880000000    9.2650000000   10.6210000000   -0.68230
O5   core     9.8390000000   10.3700000000    8.5780000000   -0.68230
O5   core    11.0760000000    8.1880000000    8.3810000000   -0.68230
Na5  core     9.1750000000   15.8900000000   11.5900000000    1.00000
Na5  core     9.1090000000    8.4220000000    9.3460000000    1.00000
Na5  core    25.9960000000   15.1470000000   11.6750000000    1.00000
Na5  core    25.8170000000    8.0680000000    9.7030000000    1.00000
switch rfo gnorm 0.05
cutp 10.0 mdf 2.0
element
cova 11 0.01
end

# O5 = o
# S5 = s6
# H5 = ha
# C5 = ca
# N5 = n2
# N6 = nh
# H6 = hn
# C6 = cc
# C7 = cd
# C8 = c

#  1     C8   1.9080   0.0860
#  7     O5  1.6612   0.2100
#  1    C7   1.9080   0.0860
#  2    C6   1.9080   0.0860
#  1    N5   1.8240   0.1700
#  1    N6   1.8240   0.1700
# 12    C5   1.9080   0.0860
#  1    H6   0.6000   0.0157
#  9    H5   1.4590   0.0150
#  2    S5   2.0000   0.2500
#no atom types 10: total atoms 37

epsilon kcal
   C8   0.0860  3.81600
   O5   0.2100  3.32240
   C7   0.0860  3.81600
   C6   0.0860  3.81600
   N5   0.1700  3.64800
   N6   0.1700  3.64800
   C5   0.0860  3.81600
   H6   0.0157  1.20000
   H5   0.0150  2.91800
   S5   0.2500  4.00000
# taken from Joung for SPC/E
# values in paper: Na 1.212 0.3526418
#   Na5  0.3526418 2.424
# decided to use values from Aqvist JPC 1990,94,8021 - these are in parm99.dat
   Na5  0.00277 3.736

lennard epsilon geometric 12 6 x13 kcal all 0.5
100.0

coul o14 1/6
  X  X  7.0
#  1 H6 N6 401.2000   1.0140
#  7 C5 H5 344.3000   1.0870
#  2 C5 S5 263.9000   1.7590
#  1   C8 O5648.0000   1.2140
#  1 C6 C7 504.0000   1.3710
#  1 C6 N5 572.5000   1.2923
#  1 C6 H5 347.2000   1.0850
#  6  O5 S5 541.1000   1.4360
#  1  C8 C7 377.4000   1.4620
#  1  C8 C6 377.4000   1.4620
#  2 C5 C6 411.7000   1.4340
# 12 C5 C5 478.4000   1.3870
#  1 C7 H5 347.2000   1.0850
#  1 N5 N6 525.1000   1.3560
#  1 C5 N6 449.0000   1.3640
#nopots 15: total bonds 39

harm bond kcal
H6 N6    802.400   1.0140 
C5 H5    688.600   1.0870 
C5 S5    527.800   1.7590 
  C8 O5  1296.000   1.2140 
C6 C7   1008.000   1.3710 
C6 N5   1145.000   1.2923 
C6 H5    694.400   1.0850 
 O5 S5   1082.200   1.4360 
 C8 C7    754.800   1.4620 
 C8 C6    754.800   1.4620 
C5 C6    823.400   1.4340 
C5 C5    956.800   1.3870 
C7 H5    694.400   1.0850 
N5 N6   1050.200   1.3560 
C5 N6    898.000   1.3640 

#  1   C5 N6 H6  49.0800 116.1300
#  1   C5 C6 C7  68.2300 113.5100
#  1   C5 C6 N5  68.5100 120.7201
#  1    C6 C8 C7  65.7300 112.7900
#  6    C5 S5 O5 42.7800 104.0700
#  1   C5 C6 H5  46.4000 124.0401
#  1     C7 C8 O5 68.9100 125.7101
#  4   C5 C5 C6  65.9900 120.1001
#  2   C5 C5 N6  69.3400 120.1301
# 12   C5 C5 C5  67.1800 119.9701
#  1   H6 N6 N5  50.0800 118.2201
#  1    C8 C6 N5  68.5300 120.8901
#  1   C6 C7 H5  48.3500 122.8901
# 14   C5 C5 H5  48.4600 120.0101
#  1    C8 C7 C6  65.2800 121.3201
#  1   C6 N5 N6  70.3500 118.4701
#  6     O5 S5 O5 46.6600 119.7301
#  1   C7 C6 H5  48.3500 122.8901
#  4   C5 C5 S5  78.6900 120.5401
#  1    C8 C7 H5  46.9900 117.0201
#  1    C8 C6 C5  63.5500 122.9501
#  1     C6 C8 O5 68.9100 125.7101
#  1   C5 N6 N5  67.8200 121.1101
#nopots 23: total angles 64

three bond kcal
N6 C5 H6     98.160 116.1300 
C6 C5 C7    136.460 113.5100 
C6 C5 N5    137.020 120.7201 
 C8 C6 C7   131.460 112.7900 
S5 C5  O5    85.560 104.0700 
C6 C5 H5     92.800 124.0401 
 C8 C7  O5  137.820 125.7101 
C5 C5 C6    131.980 120.1001 
C5 C5 N6    138.680 120.1301 
C5 C5 C5    134.360 119.9701 
N6 H6 N5    100.160 118.2201 
C6  C8 N5   137.060 120.8901 
C7 C6 H5     96.700 122.8901 
C5 C5 H5     96.920 120.0101 
C7  C8 C6   130.560 121.3201 
N5 C6 N6    140.700 118.4701 
S5  O5 O5    93.320 119.7301 
C6 C7 H5     96.700 122.8901 
C5 C5 S5    157.380 120.5401 
C7  C8 H5   93.980 117.0201 
C6  C8 C5   127.100 122.9501 
 C8 C6  O5  137.820 125.7101 
N6 C5 N5    135.640 121.1101 

#  1 H5 C7 C8 O5  2.8750 180.0001   2.0000
#  1 H5 C7 C6 H5   4.0000 180.0001   2.0000
#  1 C6 C7 C8 O5  2.8750 180.0001   2.0000
#  3 H5 C5 C5 H5   3.6250 180.0001   2.0000
#  1 C5 C6 N5 N6   4.1500 180.0001   2.0000
#  2 C5 C5 C5 N6   3.6250 180.0001   2.0000
# 12 C5 C5 S5 O5  1.3000 180.0001   2.0000
#  1 C6 N5 N6 H6   2.8000 180.0001   2.0000
#  1 C8 C7 C6 C5   4.0000 180.0001   2.0000
#  1 N5 C6 C8 O5  2.8750 180.0001   2.0000
# 14 C5 C5 C5 H5   3.6250 180.0001   2.0000
#  1 C5 C6 C8 O5  2.8750 180.0001   2.0000
#  1 C6 C7 C8 C6   2.8750 180.0001   2.0000
#  1 C8 C6 N5 N6   4.1500 180.0001   2.0000
#  4 C5 C5 C5 S5   3.6250 180.0001   2.0000
#  1 C8 C7 C6 H5   4.0000 180.0001   2.0000
#  2 H5 C5 C5 N6   3.6250 180.0001   2.0000
#  1 C6 C5 C5 C6   3.6250 180.0001   2.0000
#  1 C7 C8 C6 N5   2.8750 180.0001   2.0000
#  2 C5 C5 N6 N5   1.0500 180.0001   2.0000
#  1 C6 C8 C7 H5   2.8750 180.0001   2.0000
#  1 C5 C6 C8 C7   2.8750 180.0001   2.0000
#  4 C5 C5 C5 C6   3.6250 180.0001   2.0000
#  1 C5 N6 N5 C6   2.8000 180.0001   2.0000
# 12 C5 C5 C5 C5   3.6250 180.0001   2.0000
#  1 C5 C6 C7 H5   4.0000 180.0001   2.0000
#  2 C5 C5 N6 H6   1.0500 180.0001   2.0000
#  4 H5 C5 C5 S5   3.6250 180.0001   2.0000
#  2 C5 C5 C6 C7   0.7000 180.0001   2.0000
#  2 C5 C5 C6 H5   0.7000 180.0001   2.0000
#  2 C6 C5 C5 H5   3.6250 180.0001   2.0000
#  2 C8 C6 C5 C5   0.7000 180.0001   2.0000
#  2 C5 C5 C6 N5   0.7000 180.0001   2.0000
#nopots 33: total dihedrals 88

torsion bond kcal
H5 C7 C8 O5     2.8750    2.0000  180.0001
H5 C7 C6 H5     4.0000    2.0000  180.0001
C6 C7 C8 O5     2.8750    2.0000  180.0001
H5 C5 C5 H5     3.6250    2.0000  180.0001
C5 C6 N5 N6     4.1500    2.0000  180.0001
C5 C5 C5 N6     3.6250    2.0000  180.0001
C5 C5 S5 O5     1.3000    2.0000  180.0001
C6 N5 N6 H6     2.8000    2.0000  180.0001
C8 C7 C6 C5     4.0000    2.0000  180.0001
N5 C6 C8 O5     2.8750    2.0000  180.0001
C5 C5 C5 H5     3.6250    2.0000  180.0001
C5 C6 C8 O5     2.8750    2.0000  180.0001
C6 C7 C8 C6     2.8750    2.0000  180.0001
C8 C6 N5 N6     4.1500    2.0000  180.0001
C5 C5 C5 S5     3.6250    2.0000  180.0001
C8 C7 C6 H5     4.0000    2.0000  180.0001
H5 C5 C5 N6     3.6250    2.0000  180.0001
C6 C5 C5 C6     3.6250    2.0000  180.0001
C7 C8 C6 N5     2.8750    2.0000  180.0001
C5 C5 N6 N5     1.0500    2.0000  180.0001
C6 C8 C7 H5     2.8750    2.0000  180.0001
C5 C6 C8 C7     2.8750    2.0000  180.0001
C5 C5 C5 C6     3.6250    2.0000  180.0001
C5 N6 N5 C6     2.8000    2.0000  180.0001
C5 C5 C5 C5     3.6250    2.0000  180.0001
C5 C6 C7 H5     4.0000    2.0000  180.0001
C5 C5 N6 H6     1.0500    2.0000  180.0001
H5 C5 C5 S5     3.6250    2.0000  180.0001
C5 C5 C6 C7     0.7000    2.0000  180.0001
C5 C5 C6 H5     0.7000    2.0000  180.0001
C6 C5 C5 H5     3.6250    2.0000  180.0001
C8 C6 C5 C5     0.7000    2.0000  180.0001
C5 C5 C6 N5     0.7000    2.0000  180.0001

#  1 C5 C7 C6 H5   1.1000 180.0001   2.0000
#  1 C6 C7 C8 O5  10.5000 180.0001   2.0000
#  1 C5 H6 N6 N5   1.1000 180.0001   2.0000
#  1 C8 C5 C6 N5   1.1000 180.0001   2.0000
#  1 C5 C5 C5 N6   1.1000 180.0001   2.0000
#  1 C8 C6 C7 H5   1.1000 180.0001   2.0000
#  7 C5 C5 C5 H5   1.1000 180.0001   2.0000
#  2 C5 C5 C5 S5   1.1000 180.0001   2.0000
#  2 C5 C5 C5 C6   1.1000 180.0001   2.0000
#nopots 9: total impropers 17

torsion improper kcal
C5 C6 C7 H5     1.1000    2.0000  180.0001
C6 C8 C7 O5    10.5000    2.0000  180.0001
C5 N6 H6 N5     1.1000    2.0000  180.0001
C8 C6 C5 N5     1.1000    2.0000  180.0001
C5 C5 C5 N6     0.5500    2.0000  180.0001
C8 C7 C6 H5     1.1000    2.0000  180.0001
C5 C5 C5 H5     0.5500    2.0000  180.0001
C5 C5 C5 S5     0.5500    2.0000  180.0001
C5 C5 C5 C6     0.5500    2.0000  180.0001
harmonic inter
O5    core Na5   core  2.00000      2.40000      0.00000      0.000  5.000

