### The following input file depicts the tensile sample for Pd50-Pt50 alloy nanowire

## Initialization
units metal
echo both
atom_style atomic
dimension 3
boundary p p p

# Atom and Lattice definition
read_data sample_data_tensile.txt
timestep 0.002
compute 1 all stress/atom
compute 2 all reduce sum c_1[1] c_1[2] c_1[3]
variable stress equal ((c_2[2])/(3*vol*10000))
variable tmp equal ly
variable lo equal ${tmp}
variable strain equal (ly-v_lo)/v_lo
variable p equal -pyy/10000
thermo 100
thermo_style custom step temp vol etotal pyy lx ly lz v_stressv_strain

# Force field
pair_style eam/alloy
pair_coeff * * PdPt.set Pd Pt 

# Setting
dump 1 all custom 100 NVT_defo_dump_100K.lammpstrj id type x y z 
log NVTlogdefpdpt_100K.data
velocity all create 100 873847 rot yes mom yes dist gaussian

# Run the simulation
fix 2 all deform 1 x volume y trate 0.01 z volume units box 
fix 1 all nvt temp 100 100 0.1 
run 75000
