# Appendix A: LAMMPS Codes
# https://tigerprints.clemson.edu/cgi/viewcontent.cgi?article=3761&context=all_dissertations
#-----------------------------------------------------------------------------------------
# Mechanical Testing
#   Mechanical Tensile Test August 2023 (Modification date)
#-----------------------------------------------------------------------------------------
# The original cord in the doctoral dissertation is too well-crafted to be tensile tested. 
# I modified it to make it easier to calculate. (By Student)
#-----------------------------------------------------------------------------------------
clear
#-------------------- Environment Settings -----------------------------------------------
variable  Tdesird equal  700.0 # Desired Temperature [K]

variable   Nsteps equal   7000 # Number of simulation cycles
variable DumpFreq equal    100 # For print out

variable    dt_ps equal  0.001 # 0.001 [ps] = 1 [fs]

variable  es_rate equal    0.1 # engineering strain rate (1/time units)
# Note: es_rate/ps = 0.1 / (1e-12) = 1.0e11 [1/s]

#-------------------- Initialization -----------------------------------------------------
units metal    # units style is selected to be metal
               # For style metal these are dt = 0.001 picoseconds, skin = 2.0 Angstroms
dimension 3    # running 3D simulation which is LAMMPS default
boundary p p p # xyz boundaries are set to be periodic

#-------------------- Read structure file ------------------------------------------------
atom_style atomic
atom_modify map array

# After relaxation or MC Simulation
read_restart HEA_thermal_equilibrate.restart

group Fe type 1
group Ni type 2
group Cr type 3
group Co type 4
group Mn type 5

mass 1 55.85 # Fe, Iron
mass 2 58.69 # Ni, Nickel
mass 3 52.00 # Cr, Chromium
mass 4 58.93 # Co, Cobalt
mass 5 54.94 # Mn, Mangenese

#-------------------- Force field --------------------------------------------------------
# modified embedded-atom method
pair_style meam/c
pair_coeff * * library.meam Co Ni Cr Fe Mn hea.meam Fe Ni Cr Co Mn

#-------------------- Settings -----------------------------------------------------------
timestep ${dt_ps}

compute 1 all stress/atom NULL  # computes the symmetric per-atom stress tensor for each atom in a group.
compute 2 all temp              # computes the temp of a group of atoms
compute 3 all reduce sum c_1[2] # reduces vector quantities of all stress tensors in y-direction and adds all the quantities to a single scalar value
compute kea all ke/atom         # This is related to temperature

variable stress     equal c_3/vol # assigns a value to the variable name stress
variable stress_GPa equal v_stress/10000 # converts the stress calculated to GPa

#for units metal, pressure is in 1 [bars] = 100 [kPa] = 0.1 [MPa] = 1x10^-4 [GPa] => p3 is in GPa
variable p3 equal -pyy/10000    # [GPa]

variable    tmp equal ly
variable     lo equal ${tmp}
variable strain equal (ly-v_lo)/v_lo

thermo ${DumpFreq}
thermo_style custom step temp press vol etotal c_2 v_strain v_stress v_stress_GPa v_p3

#---------- output file settings -------------------
fix fo1 all ave/time 1 3 3 c_2 v_strain v_stress v_stress_GPa v_p3 file stress_vs_strain.txt
#---------------------------------------------------
dump            d1 all cfg ${DumpFreq} cfg/run.*.cfg mass type xs ys zs id type vx vy vz fx fy fz c_kea
dump_modify     d1 element Fe Ni Cr Co Mn
#---------------------------------------------------

velocity all create ${Tdesird} 482748 rot yes mom yes dist gaussian

#-------------------- Run the simulation -------------------------------------------------
# strain rate of 0.1 [1/time units] is applied in y direction
fix 1 all deform 1 y erate ${es_rate}

# all atoms rescaled to new positions while temp and pressure is conserved
fix 2 all npt temp ${Tdesird} ${Tdesird} $(100*dt) x 0 0 $(1000*dt) z 0 0 $(1000*dt) dilate all

# Resets the temp of atoms to 700 K by rescaling velocities after every 10 steps
fix 3 all temp/rescale 10 ${Tdesird} ${Tdesird} 0.05 1.0

# number of iterations is given so as to give 70% strain to the material
run ${Nsteps}

#-------------------- End ----------------------------------------------------------------

#-----------------------------------------------------------------------------------------
# Note
# compute        peratom all stress/atom NULL
# compute        p all reduce sum c_peratom[1] c_peratom[2] c_peratom[3]
# variable       press equal -(c_p[1]+c_p[2]+c_p[3])/(3*vol)
# # pxx = -c_p[1]/vol, pyy = -c_p[2]/vol, pzz = -c_p[3]/vol
# thermo_style   custom step temp etotal press v_press
# metal unit: press = bar = 0.1 MPa, length = Angstrom = 1e-10 m
#----------------------------------------------------------------------------------
