# Appendix A: LAMMPS Codes
# https://tigerprints.clemson.edu/cgi/viewcontent.cgi?article=3761&context=all_dissertations

#Mechanical Testing
# Mechanical Tensile Test September 2020

#-------------------- Environment Settings -----------------------------------------------
variable  Tdesird equal   77.0 # or 300 K or 600 k

#-------------------- Initialization -----------------------------------------------------
units metal    # units style is selected to be metal
               # For style metal these are dt = 0.001 picoseconds, skin = 2.0 Angstroms
dimension 3    # running 3D simulation which is LAMMPS default
boundary p p p # xyz boundaries are set to be periodic

#-------------------- Read structure file ------------------------------------------------
atom_style atomic
atom_modify map array

read_restart HEA_thermal_equilibrate.restart # after relaxation
#read_restart HEA_MC_882000.restart #read in restart file which is from the MCMD step

group Fe type 1
group Ni type 2
group Cr type 3
group Co type 4
group Mn type 5

mass 1 55.85 # Fe, Iron
mass 2 58.69 # Ni, Nickel
mass 3 52.00 # Cr, Chromium
mass 4 58.93 # Co, Cobalt
mass 5 54.94 # Mn, Mangenese

#-------------------- Force field --------------------------------------------------------
pair_style meam/c # modified embedded-atom method
pair_coeff * * library.meam Co Ni Cr Fe Mn hea.meam Fe Ni Cr Co Mn

#-------------------- Settings -----------------------------------------------------------
neighbor 2.0 bin
neigh_modify delay 10 check yes

timestep 0.001 # 1 [fs]

thermo 100
thermo_style custom step temp ke etotal press lx ly lz

velocity all create ${Tdesird} 5812775

#-------------------- Equilibrating -------------------------------------------------------
# isothermal-isobaric ensembles
fix 1 all npt temp ${Tdesird} ${Tdesird} $(1000*dt) iso 0.0 0.0 $(1000*dt)

run 40000 # 40 [ps]

unfix 1

#-------------------- Mechanical Deformation Run ------------------------------------------
reset_timestep 0

change_box all boundary p s p # changing the boundary conditions

#---------------------------------------------------------------------
# Top and bottom clamped regions
# The other atoms are mobile 
#---------------------------------------------------------------------

variable     bottomy equal -310 # slightly changes for each Grain boundary (GB) 
variable        topy equal  310 # slightly changes for each Grain boundary (GB) 
variable        lbox equal ${topy}-${bottomy} # length of the box in y
variable limitbottom equal ${bottomy}+25      # 25 A fixed
variable    limittop equal ${topy}-25         # 25 A fixed

#---------------------------------------------------------------------
# the geometry is defined in simulation box units
# A box value selects standard distance units as defined by the units 
# command, e.g. Angstroms for units = real or metal. A lattice value 
# means the distance units are in lattice spacings. The lattice command 
# must have been previously used to define the lattice spacings.
#---------------------------------------------------------------------

# defining the top and bottom fixed regions
region lower block INF INF INF ${limitbottom} INF INF units box 
region upper block INF INF ${limittop} INF INF INF units box 

group lower region lower
group upper region upper

# grouping the upper and lower fixed regions
group boundary union lower upper

# defining the dynamic atoms
group mobile subtract all boundary

# 5e-4/dt=5e-4*1e15=5*10^11/s, why 5*(10^8)/s ?
variable strrate equal 0.0005 # strain rate=0.0005/psec=5*(10^8)/s
variable vyvalue equal $( v_strrate*(v_lbox - 50) ) # velocity A/psec

#---------------------------------------------------------------------
# 240000 steps are sufficient to get to strain of 0.12 considering 
# the experimental results strain 0.5 Nsteps (0.5/strain rate)/dt
#---------------------------------------------------------------------
variable    Nsteps equal 1000000 
variable ThermoOut equal 1000
variable  DumpFreq equal 2000
variable   NoutAvg equal ${ThermoOut}/100

#thermo ${ThermoOut}
#thermo_style custom step temp ke etotal press pxx pyy pzz lx ly lz

#---------------------------------------------------------------------stress vs strain (Start line)
compute 1 all stress/atom NULL  # computes the symmetric per-atom stress tensor for each atom in a group.
compute 2 all temp              # computes the temp of a group of atoms
compute 3 all reduce sum c_1[2] # reduces vector quantities of all stress tensors in y-direction and adds all the quantities to a single scalar value
compute kea all ke/atom         # This is related to temperature

variable stress     equal c_3/(3*vol)    # assigns a value to the variable name stress
variable stress_GPa equal v_stress/10000 # converts the stress calculated to GPa

variable    tmp equal ly
variable     lo equal ${tmp}
variable strain equal (ly-v_lo)/v_lo

thermo ${ThermoOut}
thermo_style custom step temp ke etotal press pxx pyy pzz lx ly lz c_2 v_strain v_stress v_stress_GPa

#---------- output file settings -------------------
fix fo1 all ave/time 1 3 3 c_2 v_strain v_stress v_stress_GPa file stress_vs_strain.txt
#----------------------------------------------------------------------stress vs strain (End line)

# each component of the force on atoms of the group are set to 0
fix 2 boundary setforce 0.0 0.0 0.0

#---------------------------------------------------------------------
# lower set velocity is set to zero as the lower part is not moving
# The units keyword is used by set and ramp. If units = box, the 
# velocities and coordinates specified in the velocity command are 
# in the standard units described by the units command (e.g. 
# Angstroms/fs for real units). If units = lattice, velocities are 
# in units of lattice spacings per time (e.g. spacings/fs) and 
# coordinates are in lattice spacings.
#---------------------------------------------------------------------
velocity lower set 0 0 0 units box

# the upper gripped part has a velocity in the y direction
velocity upper set 0 ${vyvalue} 0 units box

# the mobile part velovity ramps up 
velocity mobile ramp vy 0.0 ${vyvalue} y ${bottomy} ${topy} sum yes units box

fix 10 all npt temp ${Tdesird} ${Tdesird} $(1000*dt) x 0.0 0.0 $(1000*dt) z 0.0 0.0 $(1000*dt) couple xz

#---------- output file settings -------------------
#dump mydump all atom ${DumpFreq} LoadingFrame_*.dump
#dump_modify mydump sort id
#---------------------------------------------------
dump            d1 all cfg ${DumpFreq} cfg/run.*.cfg mass type xs ys zs id type vx vy vz fx fy fz c_kea
dump_modify     d1 element Fe Ni Cr Co Mn
#---------------------------------------------------

run ${Nsteps}

#-------------------- End ----------------------------------------------------------------