#------------------------------------------------------------------------------------------
# LAMMPS 64-bit 22Dec2022-MSMPI
#------------------------------------------------------------------------------------------
clear
#echo both
# ---------- Initializing Simulation ---------------------------------
units metal 
dimension 3 
boundary p p p 
atom_style atomic 
atom_modify map array

read_data B.data

replicate 1 1 1

# ---------- Defining the Interatomic Potential ---------------------
pair_style meam
pair_coeff * * ./../../library.meam B ./../../B.meam B B

# ---------- Running Minimization -------------------------------------
fix 1 all box/relax iso 0.0 vmax 0.001

thermo 10 
thermo_style custom step pe lx lz press pxx pzz

min_style cg 
minimize 1e-25 1e-25 5000 10000 

variable  natoms equal "count(all)" 
variable      x0 equal "lx"
variable      y0 equal "ly"
variable      z0 equal "lz"
variable      v0 equal "vol"
variable   ecoh0 equal "pe/v_natoms"

unfix 1
write_data ./../step2_elastic/data.in

# ---------- For Equation of States -------------------------------------
change_box all x scale 0.94 y scale 0.94 z scale 0.94 remap
run 1
print "# Lattice constant (Angstroms), Volume (Angstrom), Cohesive energy (eV/atom)" file lattice_cohesive_energy.txt screen no


# Loop over lattice constants
variable i loop 49 # Number of steps
label loop

change_box all x scale 1.0025 y scale 1.0025 z scale 1.0025 remap

run 1
variable  natoms equal "count(all)" 
variable xlength equal "lx"
variable  volume equal "vol"
variable    ecoh equal "pe/v_natoms"
print "${xlength}, ${volume}, ${ecoh}" append lattice_cohesive_energy.txt screen no

next i
jump SELF loop

print "-------------------------------------------------------------"
print "Show results of 1st step (Running Minimization)"
print "The number of atoms = ${natoms};"
print "The lattice constant, x (Angstoms) = ${x0};"
print "The lattice constant, y (Angstoms) = ${y0};"
print "The lattice constant, z (Angstoms) = ${z0};"
print "The volume (Angstoms^3) = ${v0};"
print "The cohesive energy (eV/atom) = ${ecoh0};"
print "-------------------------------------------------------------"
print "Simulations completed !"