# After creating simulation box with Fe-Cr alloy atoms filled inside it we go for 
# calculating MSD value running the code given below:
# msd calculation of Fe0.05Cr crystal at temperature 50k in file
#-----------------------------------------------------------------------------------------
# LAMMPS 64-bit 22Dec2022-MSMPI
clear
#-------------------- Initialization -----------------------------------------------------
units metal
boundary p p p

#-------------------- Read structure file ------------------------------------------------
atom_style atomic

read_data Fe5Cr_crystal_50k_data.txt

group Fe type 1
group Cr type 2

#-------------------- Force field --------------------------------------------------------
pair_style eam/cd
pair_coeff * * FeCr.cdeam Fe Cr

#-------------------- Energy Minimization ------------------------------------------------
# 0 [K], structure optimization
minimize 1.0e-4 1.0e-6 10000 1000000

#-------------------- Settings -----------------------------------------------------------
reset_timestep 0

timestep 0.002 # 2 [fs]

# MSD Calculation
#--------------------------------------
compute mymsdFe Fe msd com yes
compute mymsdCr Cr msd com yes
#--------------------------------------
variable msdxFe   equal "c_mymsdFe[1]"
variable msdyFe   equal "c_mymsdFe[2]"
variable msdzFe   equal "c_mymsdFe[3]"
variable msdtotFe equal "c_mymsdFe[4]"
#--------------------------------------
variable msdxCr   equal "c_mymsdCr[1]"
variable msdyCr   equal "c_mymsdCr[2]"
variable msdzCr   equal "c_mymsdCr[3]"
variable msdtotCr equal "c_mymsdCr[4]"
#--------------------------------------
fix msdT1 Fe ave/time 1 1 2500 v_msdxFe v_msdyFe v_msdzFe v_msdtotFe file msdFe50K
fix msdT2 Cr ave/time 1 1 2500 v_msdxCr v_msdyCr v_msdzCr v_msdtotFe file msdCr50K
#--------------------------------------

thermo 300
thermo_style custom step temp press vol pe ke etotal c_mymsdFe[4] c_mymsdCr[4]

#---------- output file settings -------------------
#dump 1 all atom 1000 dump.Fe5Cr_50k_3d_11643_msd.dump.lammpstrj
#------------------------------------------------------------
dump 2 all cfg 1000 cfg/run.*.cfg mass type xs ys zs id type xs ys zs vx vy vz fx fy fz
dump_modify 2 element Fe Cr
#------------------------------------------------------------
#log logFe5Cr_50k_crystal_msd_11643.data

velocity all create 50.0 5812775 rot yes mom yes dist gaussian

#-------------------- Run the simulation -------------------------------------------------

fix 1 all npt temp 50.0 50.0 0.2 iso -1000.0 -1000.0 0.2

run 50000

print "Simulation is about to finish"
print "All done"

#-------------------- End ----------------------------------------------------------------

#-----------------------------------------------------------------------------------------
# Note
# We can derive the Li and Na diffusion coefficients using 
# the MSD data and then convert them to ionic conductivities using 
# the Nernst-Einstein equation.
# MSD = 6*D*t
# where t is the simulation time, D is diffusion coeffcients.
#-----------------------------------------------------------------------------------------