#------------------------------------------------------------------------------------------
# Appendix B# Example LAMMPS Input File
#------------------------------------------------------------------------------------------
# The following is an example of an input file in LAMMPS. This specific calculation calls the data file “monof.data”, 
# which is a monolayer of TTPO molecules on a three-layer gold substrate. A single or many #’s indicate a comment. 
# Sections of this input file are separated by lines of # symbols. To summarize: The first section defines the simulation setup 
# (interaction styles, units, boundary conditions, dimension, etc.), the second only reads in the data file
# (or a restart file if starting from a previous run is desired), the third defines all the force field parameters and defines groups and 
# fixes that keep atoms stationary (non-surface gold atoms), and the last couple sections define simulation-specific parameters
# (timesteps, dump files, computes, minimizations, run time, etc.). A couple of notes: while LAMMPS allows one to 
# set force field parameters in the data file, this was never done. The parameters were set in the input file and not altered. 
# To manipulate a simulation with the same physical system then only the last two sections should be altered, 
# since those are the ones that define simulation-specific inputs.
#------------------------------------------------------------------------------------------
# the simulation only contained 252 atoms (3 layers of Au substrate and 1 TTPO molecule), 
# a relatively small unit cell (see Chapter 3 for a detailed description of 
# the computational specifications of the calculations in this project). 
#------------------------------------------------------------------------------------------
# LAMMPS 64-bit 22Dec2022-MSMPI
clear
########################################################
### General Simulation Setup

dimension 3
boundary p p f

units metal
atom_style full
pair_style hybrid lj/cut/coul/cut 10 lj/cut 10.0 morse 5 eam
pair_modify pair lj/cut mix arithmetic
bond_style harmonic
angle_style harmonic
dihedral_style harmonic

######################################################
### Read in LAMMPS data file
### Atomic coordinates and bond/angle/dihedral defined
read_data monof.data
######################################################
### Setting Force Field Parameters
### Atom type and symbol: 1-Au 2-C 3-H 4-O 5-S
### Gold-Gold interaction
pair_coeff 1 1 eam Au_u3.eam
### Gold-Sulfur interaction
pair_coeff 1 5 morse 0.138 1.38 2.903
### Gold-C
pair_coeff 1 2 morse 0.0096 1.0137 4.104
### Gold-H
pair_coeff 1 3 morse 0.0031 1.166 4.006
### Gold-O Van der Waals
pair_coeff 1 4 lj/cut 0.00392 2.946
### i,i type pairwise VdW interactions

pair_coeff 2 2 lj/cut/coul/cut 0.00372 3.399
pair_coeff 3 3 lj/cut/coul/cut 0.00065 2.599
pair_coeff 4 4 lj/cut/coul/cut 0.00910 2.959
pair_coeff 5 5 lj/cut/coul/cut 0.01084 3.563

bond_coeff 1 24.72 1.229 #C=O
bond_coeff 2 12.5799 1.55 #C-C
bond_coeff 3 15.914 1.08 #C-H
bond_coeff 4 10.563 1.79 #C=S
bond_coeff 5 7.1980 2.038 #S-S
bond_coeff 6 20.340 1.400 #C=C
bond_coeff 7 14.262 1.675 #C-S

angle_coeff 1 1.51 120 #h-c-c
angle_coeff 2 2.73 120 #c-c-c
angle_coeff 3 2.69 120 #s-c-c
angle_coeff 4 3.11 120 #o-c-c

dihedral_coeff 1 0.157 -1 2 #h-c-c-c
dihedral_coeff 2 0.157 -1 2 #h-c-c-h
dihedral_coeff 3 0.157 -1 2 #c-c-c-c
dihedral_coeff 4 0.130 -1 2 #o-c-c-c
dihedral_coeff 5 0.157 -1 2 #s-c-c-c

thermo 100
thermo_style one

group TTPO type 2 3 4 5
group gold type 1
group bottom1 id 433:504
group bottom2 id 577:648
group bottom3 id 721:792
group bottom4 id 865:936
group bottom5 id 1009:1080
group bottom6 id 1153:1224

fix freeze1 bottom1 setforce 0 0 0
fix freeze2 bottom2 setforce 0 0 0
fix freeze3 bottom3 setforce 0 0 0
fix freeze4 bottom4 setforce 0 0 0
fix freeze5 bottom5 setforce 0 0 0
fix freeze6 bottom6 setforce 0 0 0

group mobile subtract all bottom1 bottom2 bottom3 bottom4 bottom5 bottom6

group defect id 99
delete_atoms group defect
replicate 2 2 1
#####################################################################
### Running Simulation

# Minimize
min_style sd
minimize 1.0e-20 1.0e-20 100000 100000

# Thermostat/ Set computes
set group gold mol 0
compute chunk TTPO chunk/atom molecule discard yes
compute chunkmsd TTPO msd/chunk chunk
fix chunkmsd TTPO ave/time 1 1 10000 c_chunkmsd file monofd.500.msd mode vector
compute temp1 mobile temp
fix 8 mobile nve
fix 9 mobile langevin 500 500 12.493 12345
thermo_modify temp temp1
fix_modify 9 temp temp1
compute rdf TTPO rdf 100
fix rdf TTPO ave/time 1 1 10000 c_rdf file monofd.500.rdf mode vector
timestep 0.00024987

# Dump files and run
dump dump all atom 4000 monofd.500.lammpstrj
run 5000000
write_restart monofd.500.re
#------------------------------------------------------------------------------------------