SystemLabel      ssy_andrew_dimer_c_i
NumberOfAtoms    78
NumberOfSpecies  6
%block ChemicalSpeciesLabel
    1    6  C
    2   11  Na
    3   16  S
    4    7  N
    5    8  O
    6    1  H
%endblock ChemicalSpeciesLabel
LatticeConstant 1.0 Ang
%block LatticeParameters
  35.000000  24.000000  24.000000  90.000000  90.000000  90.000000
%endblock LatticeParameters
AtomicCoordinatesFormat NotScaledCartesianAng
%block AtomicCoordinatesAndAtomicSpecies
   26.79278747    9.10124436   10.31951832   2       1  Na
   26.96219635   15.72340412   13.72848399   2       2  Na
   10.21226136    9.62920447   10.79303795   2       3  Na
   10.36551535   16.17849759   14.25247853   2       4  Na
   12.17080333    9.52609259    9.79515339   5       5  O
   10.93186828   11.66973994   10.24592979   5       6  O
   11.87713675   10.33674629   12.14617193   5       7  O
   12.14040660   10.80243039   10.68192981   3       8  S
   18.64155445   15.90572306   11.19864467   5       9  O
   17.54037872   15.26993380   11.06416286   1      10  C
   16.25206464   17.01619795   11.42804883   6      11  H
   16.22854049   15.94524849   11.20752445   1      12  C
   14.07758832   15.76063841   11.25139494   6      13  H
   15.03391751   15.25033682   11.09706386   1      14  C
   14.98792261   13.80163951   10.82555436   1      15  C
   12.79484203   13.66342917   10.94318951   6      16  H
   13.72552164   13.11439475   10.77550419   1      17  C
   13.71956693   11.71837438   10.55957988   1      18  C
   14.86663114    9.88689332   10.20810207   6      19  H
   14.92078794   10.96458751   10.37663196   1      20  C
   17.09100048   11.07803580   10.29600479   6      21  H
   16.16269271   11.63818125   10.42256350   1      22  C
   16.22317555   13.05721087   10.65517046   1      23  C
   17.52254117   13.78867857   10.75477733   1      24  C
   18.63825952   13.04883373   10.55934046   4      25  N
   19.85388832   14.66095584   10.87617268   6      26  H
   19.84422363   13.64243747   10.63958865   4      27  N
   22.15600597    9.66793589    9.82959214   6      28  H
   22.17295937   10.73900774   10.04070807   1      29  C
   20.00282552   10.99032693   10.03107148   6      30  H
   20.97142100   11.47732186   10.14793119   1      31  C
   21.03050349   12.88007981   10.44691969   1      32  C
   22.32829096   14.61536140   10.81545874   6      33  H
   22.29134896   13.54646962   10.58790705   1      34  C
   24.46040692   13.29757463   10.64914163   6      35  H
   23.49791266   12.80567789   10.48910059   1      36  C
   23.41703734   11.40872660   10.23061840   1      37  C
   24.83834987    9.18874534    9.31784920   5      38  O
   26.20009665   11.20595381    9.95852293   5      39  O
   24.93000878   10.38668774   10.30381580   3      40  S
   25.13484513    9.78715480   11.73034868   5      41  O
   25.02367288   15.78751267   14.77166777   5      42  O
   26.25231461   13.65656990   14.22794240   5      43  O
   25.28446597   15.05830331   12.39137506   5      44  O
   25.03983931   14.54151238   13.84253157   3      45  S
   18.55275228    9.41206474   13.36638775   5      46  O
   19.65180108   10.05222850   13.49911272   1      47  C
   20.94443911    8.30782129   13.14686831   6      48  H
   20.96542807    9.38038536   13.35981477   1      49  C
   23.11487845    9.57002857   13.30953865   6      50  H
   22.15804369   10.07927540   13.46429754   1      51  C
   22.19973047   11.53058170   13.72441515   1      52  C
   24.39288931   11.67666060   13.60238852   6      53  H
   23.45970840   12.22334576   13.76379898   1      54  C
   23.46214220   13.62159371   13.96544608   1      55  C
   22.30838891   15.45089571   14.30971607   6      56  H
   22.25885650   14.37203694   14.14828063   1      57  C
   20.08959867   14.25089536   14.24065922   6      58  H
   21.01943752   13.69308866   14.11434219   1      59  C
   20.96253602   12.27185390   13.89376625   1      60  C
   19.66533004   11.53484990   13.80298521   1      61  C
   18.54723085   12.27122194   13.99680944   4      62  N
   17.33857590   10.65335209   13.68394942   6      63  H
   17.34360748   11.67265369   13.91866171   4      64  N
   15.01750951   15.63908826   14.73368901   6      65  H
   15.00392769   14.56936625   14.51553297   1      66  C
   17.17442460   14.32030262   14.53774411   6      67  H
   16.20753907   13.83323444   14.41103975   1      68  C
   16.15426452   12.43242821   14.10348879   1      69  C
   14.86235729   10.69814654   13.70813925   6      70  H
   14.89550079   11.76518783   13.94699195   1      71  C
   12.72765402   12.00860370   13.87300180   6      72  H
   13.68697731   12.50280521   14.04471356   1      73  C
   13.76265276   13.89838925   14.31493112   1      74  C
   12.36178761   16.16028726   15.16411885   5      75  O
   10.99246654   14.10417711   14.69034341   5      76  O
   12.24102968   14.91044360   14.24734685   3      77  S
   11.97232704   15.43220435   12.80139212   5      78  O
%endblock AtomicCoordinatesAndAtomicSpecies
PAO.SplitNorm         0.15
PAO.SplitNormH        0.5
PAO.EnergyShift  0.001 Ry
PAO.BasisSize  TZP
%block PAO.Basis                                   # Define Basis set
C     2
n=2    0    3
 9.0 2.7 3.6
 1.0 1.0 1.0
n=2    1    3  P 1
 9.0 2.5 3.6
 1.0 1.0 1.0
N     2
n=2    0    3
 9.0 2.5 4.3
 1.0 1.0 1.0
n=2    1    3  P 1
 9.0 2.4 3.8
 1.0 1.0 1.0
O     2
n=2    0    3
 8.5 2.5 5.0
 1.0 1.0 1.0
n=2    1 3 P 1
 9.0 2.4 5.4
 1.0 1.0 1.0
H  1
n=1  0  3 P 1
 8.0 1.8 4.1
 1.0 1.0 1.0
S     2
n=3    0    3
 8.5 2.5 5.0
 1.0 1.0 1.0
n=3    1    3  P 1
 8.5 2.4 5.4
 1.0 1.0 1.0
%endblock PAO.Basis

MD.TypeOfRun    CG
MD.NumCGSteps   0
#MD.Variable-cell True
MD.MaxForceTol  0.01 eV/Ang
#MD.MaxStressTol  200 bar
MaxSCFIterations  500
SolutionMethod diagon
DM.NumberPulay 5
DM.MixingWeight 0.25
DM.Tolerance         1.d-4
XC.Functional VDW
XC.Authors LMKLL
LongOutput true
UseSaveData true
WriteXML false
MeshCutoff  300.0 Ry
