#------------------------------------------------------------------------------------------
# APPENDIX I: EXAMPLE LAMMPS INPUT SCRIPTS
# Al Nanodot Script:
# The following LAMMPS script files were used to perform molecular dynamics 
# nanoindentation simulations on CSNs, CSRs, and Al nanodots in this study. The various input 
# parameters can be adjusted to simulate different structure geometries (e.g., core diameter, 
# nanorod length, etc.), system temperatures, and indentation rates and depths. The MEAM 
# potential files ‘meam.meamf’ and ‘meam.alsimgcufe’ were obtained from the NIST Interatomic 
# Potential Repository (https://www.ctcms.nist.gov/potentials/). The simulations performed in this 
# study were run primarily on the stable LAMMPS release dated June 28, 2014.
#------------------------------------------------------------------------------------------
# LAMMPS 64-bit 22Dec2022-MSMPI
#------------------------------------------------------------------------------------------
# NIST, Interatomic Potentials (Force Fields): https://www.ctcms.nist.gov/potentials/
#------------------------------------------------------------------------------------------
clear
echo both
#-------------------- Initialization ------------------------------------------------------
########################################
#log AlND.log
# 3d Al Hemispherical Nanodot

units metal
boundary p m p
atom_style atomic
processors * 1 *

#-------------------- Gometry settings ----------------------------------------------------
variable gscale equal 0.25 # For all
variable bscale equal 4.00 # For base

# Define Variables for Geometry and Simulation Parameters
variable Lat equal 4.05 # Lattice parameter of the Base Material in Angstroms
#
variable Base    equal 10*${gscale}*${bscale} # Base Height in Angstroms
variable Radius  equal 100*${gscale}  # Metal Core Radius in Angstroms
variable Sim     equal floor((4*${Radius})/(${Lat}*${gscale}))*(${Lat}*${gscale}) # Size of Simulation Cell in Angstroms
variable IndentR equal 1000*${gscale} # Radius of spherical Indenter in Angstroms
variable IRate   equal 0.5*${gscale}  # Indent rate in Angstroms/1000 timesteps
#
variable t equal 300 # Desired Simulation Temperature [K]

# Create Simulation Box with FCC Al Lattice
lattice fcc ${Lat}
region box block 0 ${Sim} 0 ${Sim} 0 ${Sim} units box
create_box 3 box

#-------------------- Force field --------------------------------------------------------
# Al-Si MEAM Parameters from Jelinek et al.
pair_style meam
#pair_coeff * * meam.meamf AlS SiS MgS CuS FeS meam.alsimgcufe AlS AlS SiS
pair_coeff * * Jelinek_2012_meamf AlS SiS MgS CuS FeS Jelinek_2012_meam.alsimgcufe AlS AlS SiS

variable elem string "Alc Al Si" # Al-core (AlS), Al-base (AlS), amorphous-Si shell (SiS)

#-------------------- Settings -----------------------------------------------------------
# Define Regions for Al Core and Rigid Substrate
region base block INF INF INF ${Base} INF INF units box
region above-base block INF INF INF ${Base} INF INF side out units box
region core-sphere sphere $(v_Sim/2) ${Base} $(v_Sim/2) ${Radius} units box
region core intersect 2 core-sphere above-base

# Create Atoms and Groups for Al Structure
create_atoms 1 region core
create_atoms 2 region base
group core region core
group base region base

# Shift processor grid for increased efficiency
balance 1.1 shift xz 5 1.0

timestep 0.001 # 1 [fs] (default vaule)

#-------------------- Run the simulation (Minimization) ----------------------------------
# Screen and file output
thermo 10
thermo_style custom step ke pe etotal temp fmax fnorm

compute csym all centro/atom fcc 
compute pnrg all pe/atom

dump cg all custom 1000 dump/AlND.min id type x y z c_csym c_pnrg
dump d0 all cfg 1000 cfg/AlND.min_*.cfg mass type xs ys zs id type vx vy vz fx fy fz
dump_modify d0 element ${elem}

# Freeze the lower layer of the substrate
fix 1 base setforce 0.0 0.0 0.0

# Minimize total structure
min_style cg
min_modify line backtrack
minimize 1.0e-6 1.0e-8 3000 100000

undump cg
undump d0

#-------------------- Run the simulation (Equilibration, NVT) ----------------------------
# Equilibrate to Desired Temperature
reset_timestep 0

velocity all create $t 39427349 dist gaussian
velocity base set 0.00 0.00 0.00 units box

fix 2 all nvt temp $t $t 0.05

# Output commands
thermo 200
thermo_style custom step ke pe etotal temp
thermo_modify lost warn flush yes

dump 1 all custom 1000 dump/AlND_10_1B.eqil id type x y z c_csym c_pnrg 
dump d1 all cfg 1000 cfg/AlND.equil_*.cfg mass type xs ys zs id type vx vy vz fx fy fz
dump_modify d1 element ${elem}

# Run simulation
run 30000

undump 1
undump d1

#-------------------- Run the simulation (Indent) ----------------------------------------
# Indent
reset_timestep 0

variable YMax equal bound(all,ymax)
variable Iy0 equal (${YMax}+${IndentR})
#variable YMax delete
variable y equal ${Iy0}+1-${IRate}*step*dt

fix 3 all indent 10 sphere $(v_Sim/2) v_y $(v_Sim/2) ${IndentR} units box

compute strs core stress/atom NULL 
compute s11 core reduce sum c_strs[1]
compute s22 core reduce sum c_strs[2]
compute s33 core reduce sum c_strs[3]
compute s12 core reduce sum c_strs[4]
compute s13 core reduce sum c_strs[5]
compute s23 core reduce sum c_strs[6]

thermo 500
thermo_style custom step temp pe v_y f_3[1] f_3[2] f_3[3] c_s11 c_s22 c_s33 c_s12 c_s13 c_s23
thermo_modify lost warn flush yes

dump 2 all custom 2000 dump/AlND.indent id type x y z c_csym c_pnrg c_strs[1] c_strs[2] c_strs[3] c_strs[4] c_strs[5] c_strs[6]
dump d2 all cfg 1000 cfg/AlND.indent_*.cfg mass type xs ys zs id type vx vy vz fx fy fz
dump_modify d2 element ${elem}

run 42000

undump 2
undump d2

#-------------------- Run the simulation (Retract Indenter) -------------------------------
# Retract Indenter
reset_timestep 0

dump 3 all custom 2000 dump/AlND.retract id type x y z c_csym c_pnrg c_strs[1] c_strs[2] c_strs[3] c_strs[4] c_strs[5] c_strs[6]
dump d3 all cfg 1000 cfg/AlND.retract_*.cfg mass type xs ys zs id type vx vy vz fx fy fz
dump_modify d3 element ${elem}

variable y0 equal $y
variable y delete
variable y equal ${y0}+${IRate}*elapsed*dt 

run 72000

#######################################
#------------------------------------------------------------------------------------------