#------------------------------------------------------------------------------------------
# APPENDIX A
# Sample LAMMPS MD Scripts
# 
# A.1 Sample LAMMPS MD Script for lambda_p of SWCNT Systems
#------------------------------------------------------------------------------------------
# LAMMPS 64-bit 22Dec2022-MSMPI
#------------------------------------------------------------------------------------------
##-simulation of lambda_p of a SWCNT-##

##-system intalization-##
clear
echo both

units metal
dimension 3
atom_style molecular
boundary p p p
processors 1 1 1

##-data file input-##
#read_data data4Mol 200nm.txt
#read_data Mol data4 100nm.txt
read_data Mol data4 25nm.txt

##-region setup-##
region wall1 block -50 50 -50 50 -1 20 units box
region cold block -50 50 -50 50 20 41 units box
region tube block -50 50 -50 50 41 208 units box
region hot block -50 50 -50 50 208 229 units box
region wall2 block -50 50 -50 50 229 251 units box

##-interatomic potential information-##
bond_style harmonic
bond_coeff 1 20.81443 1.340
angle_style harmonic
angle_coeff 1 3.902706 119.9773623
dihedral_style harmonic

dihedral_coeff 1 0.13009 -1 2
improper_style cvff improper coeff 1 0.016044458 -1 2

pair style lj/cut 1
pair coeff * * 1 1

mass * 12
##-grouping regions-##
group wall1 region wall1
group wall2 region wall2
group cold region cold
group hot region hot
group tube region tube
group nowalls union cold tube hot

##-Teq set and intialization-##
variable t equal 50.0
timestep 0.001
thermo 200
neighbor 2.0 bin
neigh_modify every 3 delay 3
velocity nowalls create $t 49284121
thermo 200

##-NEMD equilibriation-##
fix 7 nowalls npt temp tt 10 iso 0.0 0.0 10
run 300000
unfix 7

fix 8 nowalls nvt temp tt 1
run 300000
unfix 8

fix 1 nowalls nve
variable g_ke equal ke(tube)
variable g_temp equal v_g_ke/1.5/8.617343e-5/19540
thermo 200
thermo_style custom step temp ke etotal v_g_temp
run 400000

##-constant heat flux application-##
fix 3 cold heat 1 -0.625
fix 4 hot heat 1 0.625
compute coldBath cold temp
compute hotBath hot temp
thermo 200
thermo_style custom step temp ke etotal v_g_temp c_coldBath c_hotBath
run 100000
##-temperature gradient data colection-##
compute KE tube ke/atom
variable temp atom c_KE/1.5/8.617343e-5
compute 2 tube chunk/atom bin/1d z lower 25 units box
fix 5 tube ave/chunk 200 1 200 2 v_temp file tanner_imp_di_pair_style_lj_cut_10_pair_coeff_*_*_1_1_temp50_HF0.625.txt
run 900000
