# 3.4.3 Tungsten Used as a Layer to Stop Out-Diffusion
#-----------------------------------------------------------------------------------------
# LAMMPS 64-bit 22Dec2022-MSMPI
clear
#-------------------- Read structure file ------------------------------------------------
read_data Cu345.R

mass 1  63.546 # Cu
mass 2  63.546 # Cu
mass 3   1.008 # H
mass 4 183.84  # W

group  upper type 1
group  lower type 2
group water2 type 3
group water3 type 4

#-------------------- Force field --------------------------------------------------------
pair_style hybrid bop lj/cut 2.5 lj/cut 2.5 meam
pair_coeff * * bop CuH.bop.table Cu Cu H NULL 

comm_modify cutoff 11.4

pair_coeff 1*2 4 lj/cut 1 0.00174466548 3.437227 
pair_coeff 3   4 lj/cut 2 0.00449760054 3.205241313
pair_coeff *   * meam W.library.meam W W.meam NULL NULL NULL W

reset_timestep 0

#-------------------- End ----------------------------------------------------------------