# Standard input file for LAMMPS

#innitialization 
clear 
units metal 
dimension 3  # Dimensions of space for simulation. 3D is default 
newton on on # Newton's 3rd law for pairwise and bonded interactions 

# Processors n m o define the proc. grid 
boundary p p p    # Rules or boundary 
atom_style atomic # Rules for atom styles. Atomic is default 
# atom_modify

# Atom definition 

read_data polyfe.lammps 
#read_restart restartGBfe27w 

lattice bcc 1 
region 1 block 95 98.08908 0 98.08908 0 98.08908 
region 2 block -20 95 0 98.08908 0 98.08908 
group group1 region 1 
group group2 region 2

group id id 83740 
#group id2 id 432002

#Settings 

mass 1 55.845 

pair_style eam/fs 
pair_coeff * * Fe_mm.eam.fs Fe

min_style sd 
minimize 1.0e-12 1.0e-12 1000 1000

#velocity all create 100 56565 
#velocity group1 create 300 54545 rot yes dist gaussian 
velocity group2 create 300 54545 rot yes dist gaussian 
velocity all zero linear 
velocity all zero angular

fix 1 group2 npt 300 300 1 aniso NULL NULL 0.0 0.0 0.0 0.0 10 drag 1.0 
#fix 1 group2 nvt 100 100 1.0 drag 0.2 
#fix 1 all nve 
fix 11 group1 setforce 0 0 0 

#set atom 216001 x -5 y 57.75 z 58

#velocity id set 820.205 130.085 42.985 
#velocity id set 0 0 0 
fix 3 id setforce 0 0 0 
#fix 4 id2 setforce 0 0 0 
compute 1 all ke/atom

#min_style cg 

#run_style verlet 
thermo 10 
timestep 0.0005 

dump atom all xyz 100 grainfe.xyz 
#dump atoms all custom 100 feGB1ps-15 id x y z c_1 

run 1000 

unfix 1 

#write_restart restartGBfe-151ps
