# 3.4.1 Creating FCC Copper Crystal and Hydrogen Addition
#-----------------------------------------------------------------------------------------
# LAMMPS 64-bit 22Dec2022-MSMPI
clear
#-------------------- Initialization -----------------------------------------------------
units metal
dimension 3
boundary p p p

#-------------------- Read structure file ------------------------------------------------
atom_style atomic

read_data Data.R1 # data from step1

#-------------------- Force field --------------------------------------------------------
pair_style bop
pair_coeff * * CuH.bop.table Cu H

comm_modify cutoff 11.4

#-------------------- Energy Minimization ------------------------------------------------
# 0 [K], structure optimization
minimize 1.0e-8 1.0e-8 1000000 1000000

#-------------------- Settings -----------------------------------------------------------
reset_timestep 0

timestep 0.001 # 1 [fs]

thermo 100
thermo_modify lost ignore

#---------- output file settings -------------------
dump 2 all cfg 100 cfg/run.*.cfg mass type xs ys zs id type xs ys zs vx vy vz fx fy fz
dump_modify 2 element Cu H
#---------------------------------------------------

velocity all create 1000 25674 dist gaussian

#-------------------- Run the simulation -------------------------------------------------

fix 1 all npt temp 300 300 $(100*dt) iso 0.0 0.0 $(1000*dt)
fix 3 all momentum 1 linear 1 1 1

run 20000

unfix 1

#---------- output file settings -------------------
write_data Data25.R1

print “Done”

#-------------------- End ----------------------------------------------------------------