# 3.4.1 Creating FCC Copper Crystal and Hydrogen Addition
#-----------------------------------------------------------------------------------------
# LAMMPS 64-bit 22Dec2022-MSMPI
clear
#-------------------- Initialization -----------------------------------------------------
units metal
dimension 3
boundary p p p

#-------------------- Atom & Lattice description ----------------------------------------
atom_style atomic
atom_modify map array

lattice fcc 3.61

region box block 0 50 0 68.5 0 100 units box
create_box 2 box

lattice fcc 3.61 orient x 1 0 0 orient y 0 1 0 orient z 0 0 1
create_atoms 1 box

mass 1 63.546   # Cu
mass 2  1.00794 # H

write_data Data.R1

print “Done”
#-------------------- End ----------------------------------------------------------------
