# 3.4.1 Creating FCC Copper Crystal and Hydrogen Addition

#-------------------- Read structure file ------------------------------------------------
read_data Data.R1

#-------------------- Force field --------------------------------------------------------
pair_style bop
pair_coeff * * CuH.bop.table Cu H

comm_modify cutoff 11.4

#-------------------- Energy Minimization ------------------------------------------------
# 0 [K], structure optimization
minimize 1.0e-8 1.0e-8 1000000 1000000

#-------------------- Settings -----------------------------------------------------------
reset_timestep 0

timestep 0.001

thermo 20000
thermo_modify lost ignore

dump 2 all atom 20000 copper_box_300K2.lammpstrj
dump 3 all custom 100000 Copper2_box_300k_final.dump id type x y z vx vy vz

velocity all create 1000 25674 dist gaussian

#-------------------- Run the simulation -------------------------------------------------

fix 1 all npt temp 1000 1000 0.1 iso 0.0 0.0 10 
fix 3 all momentum 1 linear 1 1 1

restart 1000000 poly.restart

run 10000000

unfix 1

#---------- output file settings -------------------
write_data Data25.R1
write_restart Copper2_box_300k.restart

print “Done”

#-------------------- End ----------------------------------------------------------------