# 3.4.1 Creating FCC Copper Crystal and Hydrogen Addition

read_data Data.R1

pair_style bop
pair_coeff * * CuH.bop.table Cu H

comm_modify cutoff 11.4

velocity all create 1000 25674 dist gaussian

minimize 1.0e-8 1.0e-8 1000000 1000000

timestep 0.001

reset_timestep 0

fix 1 all npt temp 1000 1000 0.1 iso 0.0 0.0 10 
fix 3 all momentum 1 linear 1 1 1

thermo 20000

dump 2 all atom 20000 copper_box_300K2.lammpstrj
dump 3 all custom 100000 Copper2_box_300k_final.dump id type x y z vx vy vz

thermo_modify lost ignore

restart 1000000 poly.restart

run 10000000

unfix 1

write_data Data25.R1
write_restart Copper2_box_300k.restart

print “Done”