# 3.4.1 Creating FCC Copper Crystal and Hydrogen Addition
#-------------------- Initialization -----------------------------------------------------
clear

log copper_box_3.log

units metal
dimension 3
boundary p p p

#-------------------- Atom & Lattice description ----------------------------------------
atom_style atomic
atom_modify map array

lattice fcc 3.61

region box block 0 50 0 68.5 0 100 units box
create_box 1 box

lattice fcc 3.61 orient x 1 0 0 orient y 0 1 0 orient z 0 0 1
create_atoms 1 box

mass 1 63.546

write_data Data.R1

print “Done”
#-------------------- End ----------------------------------------------------------------
