# An example of ABINIT script sample content showing the internal energy computation of 
# B2-Cu50Zr50 crystal using the first principle approach in order to obtain the electronic heat capacity Ce(Te).

ndtset 40
occopt 3
tsmear: 0.0000032
tsmear+ 0.0079
acell 6.164286175 6.164286175 6.164286175
rprim 1.0000000000 0.0000000000 0.0000000000
      0.0000000000 1.0000000000 0.0000000000
      0.0000000000 0.0000000000 1.0000000000
ecutsm 0.05
nband 400
ntypat 2
znucl 29 40

natom 2
typat 1 2
xred
0.0 0.0 0.0
0.5 0.5 0.5
ecut 30.0
pawecutdg 60
pawovlp -1
ixc 1

ngkpt 8 8 8
nshiftk 1
shiftk 0.5 0.5 0.5
nstep 200
toldfe 1.0d-7
