#-----------------------------------------------------------------------------------------
# 4.2 Creation of Al-Mg-Zn alloys
#  Test: LAMMPS 64-bit 22Dec2022-MSMPI version
#-----------------------------------------------------------------------------------------
clear
echo both
#-------------------- Environment Settings -----------------------------------------------
variable  Tdesird equal  273+25.0 # Desired Temperature [K]

variable  dt_ps   equal   0.003 # 3.0 [fs] (Recommend 0.1-3.5 [fs]), sets the timestep for subsequent simulations

variable Nsteps   equal  100000 # The number of calculations (e.g., 1000 - 100000)
variable Nout     equal    1000 # output (e.g., 10 - 1000)

variable rseed    equal   12345 # random seed (Note: If you want different results, use different values.)

#-------------------- Initialization -----------------------------------------------------
units metal
dimension 3
boundary p p p

#-------------------- Atom & Lattice description ----------------------------------------
atom_style atomic

read_data data_after_step2.lammps

variable elem string "Al Mg Zn"

#-------------------- Force field --------------------------------------------------------
pair_style meam

#----- MEAM_potential_2021_version -----
variable padress string "./../MEAM_potential_2021_version"
pair_coeff * *  ${padress}/library.meam ${elem}  ${padress}/AlZnMg.meam ${elem}

#----- MEAM_potential_2018_version -----
#variable padress string "./../MEAM_potential_2018_version"
#pair_coeff * *  ${padress}/MgAlZn.library.meam ${elem}  ${padress}/MgAlZn.parameter.meam ${elem}

#-----------------------------------------------------------------------------------------

#-------------------- Settings -----------------------------------------------------------
timestep ${dt_ps}

thermo ${Nout}   # computes and prints thermodynamic 
thermo_style custom step temp vol press etotal   # specifies content of thermodynamic data to be printed in screen

velocity all create ${Tdesird} ${rseed} mom yes rot no # sets the velocity of a group of atoms

#---------- output file settings --------------------------------------
dump            d1 all cfg ${Nout} cfg/run.mc.*.cfg mass type xs ys zs id type vx vy vz fx fy fz
dump_modify     d1 element ${elem}
#----------------------------------------------------------------------

#-------------------- Run the simulation -------------------------------------------------

# ----- Radial Distribution Function -----
#comm_modify     cutoff 14
compute         distribution all rdf 240
fix             f1 all ave/time 1 ${Nout} ${Nout} c_distribution[*] file AlMgZn_RDF.txt mode vector

# ----- Mean Square Displacement -----
group           Al type 1
compute         Almsd Al msd
fix             f2 all ave/time 1 ${Nout} ${Nout} c_Almsd[*] file out_Al_msd.txt
# -----
group           Mg type 2
compute         Mgmsd Mg msd
fix             f3 all ave/time 1 ${Nout} ${Nout} c_Mgmsd[*] file out_Mg_msd.txt
# -----
group           Zn type 3
compute         Znmsd Zn msd
fix             f4 all ave/time 1 ${Nout} ${Nout} c_Znmsd[*] file out_Zn_msd.txt
# -----
compute         allmsd all msd
fix             f5 all ave/time 1 ${Nout} ${Nout} c_allmsd[*] file out_all_msd.txt

#fix f6 all nvt temp ${Tdesird} ${Tdesird} $(100*dt) 
fix f6 all npt temp ${Tdesird} ${Tdesird} $(100*dt) iso 1.0 1.0 $(1000*dt)

run ${Nsteps}

write_data data_after_step3.lammps

#-------------------- End ----------------------------------------------------------------
