# APPENDIX B, INDENTATION SCRIPT

log DLC_pen.log
dimension 3
boundary p p f
atom_style full
units metal

read_data DLC_pen.txt

region surf block 0 120 0 40 3 21 units box
group surf region surf
group tip type 1

pair_style airebo 2.5 1 1
pair_coeff * * CH.airebo C C H
compute coordno surf coord/atom cutoff 1.73
compute surftemp surf temp
variable fx equal fcm(tip,x)
variable fz equal fcm(tip,z)

timestep 0.0001
fix 1 surf nvt temp 295 295 0.01
fix 2 surf wall/reflect zhi 20 units box

fix 3 tip move linear 0 0 -0.1 units box
dump 1 all atom 50000 DLC_pen.lammpstrj
dump 2 all custom 50000 DLC_pen.dump id mol type q x y z vx vy vz
dump 3 all custom 50000 DLC_pen.coordno id type c_coordno
thermo_style custom step atoms temp press ke pe etotal lx ly lz density c_surftemp v_fx v_fz
thermo_modify lost warn
thermo 2500
run 700000
write_restart DLC_pen.restart
