pair_style table spline 10000
pair_coeff 1 1 mie_Co-Co.table ENTRY
pair_coeff 2 2 mie_Cr-Cr.table ENTRY
pair_coeff 3 3 mie_Fe-Fe.table ENTRY
pair_coeff 4 4 mie_Mn-Mn.table ENTRY
pair_coeff 5 5 mie_Ni-Ni.table ENTRY
pair_coeff 1 2 mie_Co-Cr.table ENTRY
pair_coeff 1 3 mie_Co-Fe.table ENTRY
pair_coeff 1 4 mie_Co-Mn.table ENTRY
pair_coeff 1 5 mie_Co-Ni.table ENTRY
pair_coeff 2 3 mie_Cr-Fe.table ENTRY
pair_coeff 2 4 mie_Cr-Mn.table ENTRY
pair_coeff 2 5 mie_Cr-Ni.table ENTRY
pair_coeff 3 4 mie_Fe-Mn.table ENTRY
pair_coeff 3 5 mie_Fe-Ni.table ENTRY
pair_coeff 4 5 mie_Mn-Ni.table ENTRY
