#------------------------------------------------------------------------------------------
# Appendix C
#------------------------------------------------------------------------------------------
# LAMMPS 64-bit 22Dec2022-MSMPI
#------------------------------------------------------------------------------------------
# NIST, Interatomic Potentials (Force Fields): https://www.ctcms.nist.gov/potentials/
#------------------------------------------------------------------------------------------
clear
#echo both
#-------------------- Initialization -----------------------------------------------------
dimension 3
boundary p p p
units metal
atom_style atomic

# Note: Melting point: 900 deg for Al-Co-Ni, 800 deg for Al-Co-Cu, 660 deg for Al
variable temp equal 273.0+250.0 # Temperature [K]

#-------------------- Atom & Lattice description ----------------------------------------
read_data d-AlCoNi.lmp

#replicate 4 3 6
#write_data d-AlCoNi_4x3x6_new_init.lmp
replicate 7 5 9
write_data d-AlCoNi_7x5x9_new_init.lmp

# Define the box boundaries in the z direction
variable lz equal "zhi - zlo"

# Define the regions using calculated values
variable z1 equal "1*v_lz/6"
variable z2 equal "2*v_lz/6"
variable z3 equal "3*v_lz/6"
variable z4 equal "4*v_lz/6"
variable z5 equal "5*v_lz/6"

region rqcfix  block INF INF INF INF ${z5} INF
region rqctemp block INF INF INF INF ${z4} ${z5}
region rqcfree block INF INF INF INF ${z3} ${z4}
region radfree block INF INF INF INF ${z2} ${z3}
region radtemp block INF INF INF INF ${z1} ${z2}
region radfix  block INF INF INF INF INF   ${z1}

group qcfix region rqcfix
group qctemp region rqctemp
group qcfree region rqcfree
group adfree region radfree
group adtemp region radtemp
group adfix region radfix
group temps union qctemp adtemp
#group adfix union all

variable elem string "Al Ni Co"

#-------------------- Force field --------------------------------------------------------
pair_style meam
pair_coeff * * ./potentials/library.meam Ni Al Co ./potentials/NiAlCo.meam ${elem}

#pair_style eam/alloy
#pair_coeff * * ./potentials/Mishin_updated-Ni-Al-Co-2013.eam.alloy ${elem}

#-------------------- Energy Minimization ------------------------------------------------
# 0 [K], structure optimization
minimize 1.0e-4 1.0e-6 100 1000
#minimize 0.0 1.0e-8 1000 100000

#-------------------- Settings -----------------------------------------------------------
reset_timestep 0

#timestep 0.004 # 4 [fs]
timestep 0.0005 # 0.5 [fs]

# The pair entropy values have units of the Boltzmann constant. 
# They are always negative, and lower values (lower entropy) correspond to more ordered environments.
# Boltzmann constant, kb = 8.617333262e-5 [eV/K]
compute Sentropy all entropy/atom 0.25 5.0
compute SentropySum all reduce sum c_Sentropy
variable ST equal 8.617333262e-5*c_SentropySum*temp

thermo 100
#thermo_style one # one or multi
thermo_style custom step temp c_SentropySum v_ST enthalpy etotal pe ke density vol press

dump d1 all cfg 100 cfg/nve.*.cfg mass type xs ys zs id vx vy vz fx fy fz
dump_modify d1 element ${elem}

#-------------------- Run the simulation -------------------------------------------------
# Equilibriation

fix 1 all nve
fix 2 all langevin ${temp} ${temp} $(100/4*dt) 123456
run 50000
unfix 2
undump d1

#-------------------- Run the simulation -------------------------------------------------
# Add velocity

fix 3 qcfix setforce 0.0 0.0 0.0 # 0.0 eV/Angstrom
velocity qcfix set 0.0 0.0 0.0 units box sum no # 0.0 Angstrom/ps

fix 4 temps langevin ${temp} ${temp} $(100/40*dt) 123456
#fix 4 all langevin ${temp} ${temp} $(100/40*dt) 123456

fix 5 adfix setforce 0.0 0.0 0.0

thermo 100
thermo_style custom step temp f_5[1] f_5[2] f_5[3] enthalpy etotal pe ke density

dump d2 all cfg 100 cfg/adfix.*.cfg mass type xs ys zs id vx vy vz fx fy fz
dump_modify d2 element ${elem}

velocity adfix set  0.00 -0.75 0.0 units box sum no # -0.75 Angstrom/ps at y axis
run 70000

velocity adfix set  0.00  0.00 0.0 units box sum no # 0.0 Angstrom/ps
run 70000

velocity adfix set -0.05  0.00 0.0 units box sum no # -0.05 Angstrom/ps at x axis
run 200000

print "---------- Ende ----------"
#------------------------------------------------------------------------------------------