Ni4
1.0
       17.5289916992         0.0000000000         0.0000000000
        0.0000000000        17.5289916992         0.0000000000
        0.0000000000         0.0000000000        17.5289916992
   Ni
  500
Cartesian
     0.000000000         0.000000000         0.000000000
     0.000000000         0.000000000         3.505798392
     0.000000000         0.000000000         7.011596784
     0.000000000         0.000000000        10.517395437
     0.000000000         0.000000000        14.023193568
     0.000000000         3.505798392         0.000000000
     0.000000000         3.505798392         3.505798392
     0.000000000         3.505798392         7.011596784
     0.000000000         3.505798392        10.517395437
     0.000000000         3.505798392        14.023193568
     0.000000000         7.011596784         0.000000000
     0.000000000         7.011596784         3.505798392
     0.000000000         7.011596784         7.011596784
     0.000000000         7.011596784        10.517395437
     0.000000000         7.011596784        14.023193568
     0.000000000        10.517395437         0.000000000
     0.000000000        10.517395437         3.505798392
     0.000000000        10.517395437         7.011596784
     0.000000000        10.517395437        10.517395437
     0.000000000        10.517395437        14.023193568
     0.000000000        14.023193568         0.000000000
     0.000000000        14.023193568         3.505798392
     0.000000000        14.023193568         7.011596784
     0.000000000        14.023193568        10.517395437
     0.000000000        14.023193568        14.023193568
     3.505798392         0.000000000         0.000000000
     3.505798392         0.000000000         3.505798392
     3.505798392         0.000000000         7.011596784
     3.505798392         0.000000000        10.517395437
     3.505798392         0.000000000        14.023193568
     3.505798392         3.505798392         0.000000000
     3.505798392         3.505798392         3.505798392
     3.505798392         3.505798392         7.011596784
     3.505798392         3.505798392        10.517395437
     3.505798392         3.505798392        14.023193568
     3.505798392         7.011596784         0.000000000
     3.505798392         7.011596784         3.505798392
     3.505798392         7.011596784         7.011596784
     3.505798392         7.011596784        10.517395437
     3.505798392         7.011596784        14.023193568
     3.505798392        10.517395437         0.000000000
     3.505798392        10.517395437         3.505798392
     3.505798392        10.517395437         7.011596784
     3.505798392        10.517395437        10.517395437
     3.505798392        10.517395437        14.023193568
     3.505798392        14.023193568         0.000000000
     3.505798392        14.023193568         3.505798392
     3.505798392        14.023193568         7.011596784
     3.505798392        14.023193568        10.517395437
     3.505798392        14.023193568        14.023193568
     7.011596784         0.000000000         0.000000000
     7.011596784         0.000000000         3.505798392
     7.011596784         0.000000000         7.011596784
     7.011596784         0.000000000        10.517395437
     7.011596784         0.000000000        14.023193568
     7.011596784         3.505798392         0.000000000
     7.011596784         3.505798392         3.505798392
     7.011596784         3.505798392         7.011596784
     7.011596784         3.505798392        10.517395437
     7.011596784         3.505798392        14.023193568
     7.011596784         7.011596784         0.000000000
     7.011596784         7.011596784         3.505798392
     7.011596784         7.011596784         7.011596784
     7.011596784         7.011596784        10.517395437
     7.011596784         7.011596784        14.023193568
     7.011596784        10.517395437         0.000000000
     7.011596784        10.517395437         3.505798392
     7.011596784        10.517395437         7.011596784
     7.011596784        10.517395437        10.517395437
     7.011596784        10.517395437        14.023193568
     7.011596784        14.023193568         0.000000000
     7.011596784        14.023193568         3.505798392
     7.011596784        14.023193568         7.011596784
     7.011596784        14.023193568        10.517395437
     7.011596784        14.023193568        14.023193568
    10.517395437         0.000000000         0.000000000
    10.517395437         0.000000000         3.505798392
    10.517395437         0.000000000         7.011596784
    10.517395437         0.000000000        10.517395437
    10.517395437         0.000000000        14.023193568
    10.517395437         3.505798392         0.000000000
    10.517395437         3.505798392         3.505798392
    10.517395437         3.505798392         7.011596784
    10.517395437         3.505798392        10.517395437
    10.517395437         3.505798392        14.023193568
    10.517395437         7.011596784         0.000000000
    10.517395437         7.011596784         3.505798392
    10.517395437         7.011596784         7.011596784
    10.517395437         7.011596784        10.517395437
    10.517395437         7.011596784        14.023193568
    10.517395437        10.517395437         0.000000000
    10.517395437        10.517395437         3.505798392
    10.517395437        10.517395437         7.011596784
    10.517395437        10.517395437        10.517395437
    10.517395437        10.517395437        14.023193568
    10.517395437        14.023193568         0.000000000
    10.517395437        14.023193568         3.505798392
    10.517395437        14.023193568         7.011596784
    10.517395437        14.023193568        10.517395437
    10.517395437        14.023193568        14.023193568
    14.023193568         0.000000000         0.000000000
    14.023193568         0.000000000         3.505798392
    14.023193568         0.000000000         7.011596784
    14.023193568         0.000000000        10.517395437
    14.023193568         0.000000000        14.023193568
    14.023193568         3.505798392         0.000000000
    14.023193568         3.505798392         3.505798392
    14.023193568         3.505798392         7.011596784
    14.023193568         3.505798392        10.517395437
    14.023193568         3.505798392        14.023193568
    14.023193568         7.011596784         0.000000000
    14.023193568         7.011596784         3.505798392
    14.023193568         7.011596784         7.011596784
    14.023193568         7.011596784        10.517395437
    14.023193568         7.011596784        14.023193568
    14.023193568        10.517395437         0.000000000
    14.023193568        10.517395437         3.505798392
    14.023193568        10.517395437         7.011596784
    14.023193568        10.517395437        10.517395437
    14.023193568        10.517395437        14.023193568
    14.023193568        14.023193568         0.000000000
    14.023193568        14.023193568         3.505798392
    14.023193568        14.023193568         7.011596784
    14.023193568        14.023193568        10.517395437
    14.023193568        14.023193568        14.023193568
     0.000000000         1.752899196         1.752899196
     0.000000000         1.752899196         5.258697719
     0.000000000         1.752899196         8.764495850
     0.000000000         1.752899196        12.270293980
     0.000000000         1.752899196        15.776092111
     0.000000000         5.258697719         1.752899196
     0.000000000         5.258697719         5.258697719
     0.000000000         5.258697719         8.764495850
     0.000000000         5.258697719        12.270293980
     0.000000000         5.258697719        15.776092111
     0.000000000         8.764495850         1.752899196
     0.000000000         8.764495850         5.258697719
     0.000000000         8.764495850         8.764495850
     0.000000000         8.764495850        12.270293980
     0.000000000         8.764495850        15.776092111
     0.000000000        12.270293980         1.752899196
     0.000000000        12.270293980         5.258697719
     0.000000000        12.270293980         8.764495850
     0.000000000        12.270293980        12.270293980
     0.000000000        12.270293980        15.776092111
     0.000000000        15.776092111         1.752899196
     0.000000000        15.776092111         5.258697719
     0.000000000        15.776092111         8.764495850
     0.000000000        15.776092111        12.270293980
     0.000000000        15.776092111        15.776092111
     3.505798392         1.752899196         1.752899196
     3.505798392         1.752899196         5.258697719
     3.505798392         1.752899196         8.764495850
     3.505798392         1.752899196        12.270293980
     3.505798392         1.752899196        15.776092111
     3.505798392         5.258697719         1.752899196
     3.505798392         5.258697719         5.258697719
     3.505798392         5.258697719         8.764495850
     3.505798392         5.258697719        12.270293980
     3.505798392         5.258697719        15.776092111
     3.505798392         8.764495850         1.752899196
     3.505798392         8.764495850         5.258697719
     3.505798392         8.764495850         8.764495850
     3.505798392         8.764495850        12.270293980
     3.505798392         8.764495850        15.776092111
     3.505798392        12.270293980         1.752899196
     3.505798392        12.270293980         5.258697719
     3.505798392        12.270293980         8.764495850
     3.505798392        12.270293980        12.270293980
     3.505798392        12.270293980        15.776092111
     3.505798392        15.776092111         1.752899196
     3.505798392        15.776092111         5.258697719
     3.505798392        15.776092111         8.764495850
     3.505798392        15.776092111        12.270293980
     3.505798392        15.776092111        15.776092111
     7.011596784         1.752899196         1.752899196
     7.011596784         1.752899196         5.258697719
     7.011596784         1.752899196         8.764495850
     7.011596784         1.752899196        12.270293980
     7.011596784         1.752899196        15.776092111
     7.011596784         5.258697719         1.752899196
     7.011596784         5.258697719         5.258697719
     7.011596784         5.258697719         8.764495850
     7.011596784         5.258697719        12.270293980
     7.011596784         5.258697719        15.776092111
     7.011596784         8.764495850         1.752899196
     7.011596784         8.764495850         5.258697719
     7.011596784         8.764495850         8.764495850
     7.011596784         8.764495850        12.270293980
     7.011596784         8.764495850        15.776092111
     7.011596784        12.270293980         1.752899196
     7.011596784        12.270293980         5.258697719
     7.011596784        12.270293980         8.764495850
     7.011596784        12.270293980        12.270293980
     7.011596784        12.270293980        15.776092111
     7.011596784        15.776092111         1.752899196
     7.011596784        15.776092111         5.258697719
     7.011596784        15.776092111         8.764495850
     7.011596784        15.776092111        12.270293980
     7.011596784        15.776092111        15.776092111
    10.517395437         1.752899196         1.752899196
    10.517395437         1.752899196         5.258697719
    10.517395437         1.752899196         8.764495850
    10.517395437         1.752899196        12.270293980
    10.517395437         1.752899196        15.776092111
    10.517395437         5.258697719         1.752899196
    10.517395437         5.258697719         5.258697719
    10.517395437         5.258697719         8.764495850
    10.517395437         5.258697719        12.270293980
    10.517395437         5.258697719        15.776092111
    10.517395437         8.764495850         1.752899196
    10.517395437         8.764495850         5.258697719
    10.517395437         8.764495850         8.764495850
    10.517395437         8.764495850        12.270293980
    10.517395437         8.764495850        15.776092111
    10.517395437        12.270293980         1.752899196
    10.517395437        12.270293980         5.258697719
    10.517395437        12.270293980         8.764495850
    10.517395437        12.270293980        12.270293980
    10.517395437        12.270293980        15.776092111
    10.517395437        15.776092111         1.752899196
    10.517395437        15.776092111         5.258697719
    10.517395437        15.776092111         8.764495850
    10.517395437        15.776092111        12.270293980
    10.517395437        15.776092111        15.776092111
    14.023193568         1.752899196         1.752899196
    14.023193568         1.752899196         5.258697719
    14.023193568         1.752899196         8.764495850
    14.023193568         1.752899196        12.270293980
    14.023193568         1.752899196        15.776092111
    14.023193568         5.258697719         1.752899196
    14.023193568         5.258697719         5.258697719
    14.023193568         5.258697719         8.764495850
    14.023193568         5.258697719        12.270293980
    14.023193568         5.258697719        15.776092111
    14.023193568         8.764495850         1.752899196
    14.023193568         8.764495850         5.258697719
    14.023193568         8.764495850         8.764495850
    14.023193568         8.764495850        12.270293980
    14.023193568         8.764495850        15.776092111
    14.023193568        12.270293980         1.752899196
    14.023193568        12.270293980         5.258697719
    14.023193568        12.270293980         8.764495850
    14.023193568        12.270293980        12.270293980
    14.023193568        12.270293980        15.776092111
    14.023193568        15.776092111         1.752899196
    14.023193568        15.776092111         5.258697719
    14.023193568        15.776092111         8.764495850
    14.023193568        15.776092111        12.270293980
    14.023193568        15.776092111        15.776092111
     1.752899196         0.000000000         1.752899196
     1.752899196         0.000000000         5.258697719
     1.752899196         0.000000000         8.764495850
     1.752899196         0.000000000        12.270293980
     1.752899196         0.000000000        15.776092111
     1.752899196         3.505798392         1.752899196
     1.752899196         3.505798392         5.258697719
     1.752899196         3.505798392         8.764495850
     1.752899196         3.505798392        12.270293980
     1.752899196         3.505798392        15.776092111
     1.752899196         7.011596784         1.752899196
     1.752899196         7.011596784         5.258697719
     1.752899196         7.011596784         8.764495850
     1.752899196         7.011596784        12.270293980
     1.752899196         7.011596784        15.776092111
     1.752899196        10.517395437         1.752899196
     1.752899196        10.517395437         5.258697719
     1.752899196        10.517395437         8.764495850
     1.752899196        10.517395437        12.270293980
     1.752899196        10.517395437        15.776092111
     1.752899196        14.023193568         1.752899196
     1.752899196        14.023193568         5.258697719
     1.752899196        14.023193568         8.764495850
     1.752899196        14.023193568        12.270293980
     1.752899196        14.023193568        15.776092111
     5.258697719         0.000000000         1.752899196
     5.258697719         0.000000000         5.258697719
     5.258697719         0.000000000         8.764495850
     5.258697719         0.000000000        12.270293980
     5.258697719         0.000000000        15.776092111
     5.258697719         3.505798392         1.752899196
     5.258697719         3.505798392         5.258697719
     5.258697719         3.505798392         8.764495850
     5.258697719         3.505798392        12.270293980
     5.258697719         3.505798392        15.776092111
     5.258697719         7.011596784         1.752899196
     5.258697719         7.011596784         5.258697719
     5.258697719         7.011596784         8.764495850
     5.258697719         7.011596784        12.270293980
     5.258697719         7.011596784        15.776092111
     5.258697719        10.517395437         1.752899196
     5.258697719        10.517395437         5.258697719
     5.258697719        10.517395437         8.764495850
     5.258697719        10.517395437        12.270293980
     5.258697719        10.517395437        15.776092111
     5.258697719        14.023193568         1.752899196
     5.258697719        14.023193568         5.258697719
     5.258697719        14.023193568         8.764495850
     5.258697719        14.023193568        12.270293980
     5.258697719        14.023193568        15.776092111
     8.764495850         0.000000000         1.752899196
     8.764495850         0.000000000         5.258697719
     8.764495850         0.000000000         8.764495850
     8.764495850         0.000000000        12.270293980
     8.764495850         0.000000000        15.776092111
     8.764495850         3.505798392         1.752899196
     8.764495850         3.505798392         5.258697719
     8.764495850         3.505798392         8.764495850
     8.764495850         3.505798392        12.270293980
     8.764495850         3.505798392        15.776092111
     8.764495850         7.011596784         1.752899196
     8.764495850         7.011596784         5.258697719
     8.764495850         7.011596784         8.764495850
     8.764495850         7.011596784        12.270293980
     8.764495850         7.011596784        15.776092111
     8.764495850        10.517395437         1.752899196
     8.764495850        10.517395437         5.258697719
     8.764495850        10.517395437         8.764495850
     8.764495850        10.517395437        12.270293980
     8.764495850        10.517395437        15.776092111
     8.764495850        14.023193568         1.752899196
     8.764495850        14.023193568         5.258697719
     8.764495850        14.023193568         8.764495850
     8.764495850        14.023193568        12.270293980
     8.764495850        14.023193568        15.776092111
    12.270293980         0.000000000         1.752899196
    12.270293980         0.000000000         5.258697719
    12.270293980         0.000000000         8.764495850
    12.270293980         0.000000000        12.270293980
    12.270293980         0.000000000        15.776092111
    12.270293980         3.505798392         1.752899196
    12.270293980         3.505798392         5.258697719
    12.270293980         3.505798392         8.764495850
    12.270293980         3.505798392        12.270293980
    12.270293980         3.505798392        15.776092111
    12.270293980         7.011596784         1.752899196
    12.270293980         7.011596784         5.258697719
    12.270293980         7.011596784         8.764495850
    12.270293980         7.011596784        12.270293980
    12.270293980         7.011596784        15.776092111
    12.270293980        10.517395437         1.752899196
    12.270293980        10.517395437         5.258697719
    12.270293980        10.517395437         8.764495850
    12.270293980        10.517395437        12.270293980
    12.270293980        10.517395437        15.776092111
    12.270293980        14.023193568         1.752899196
    12.270293980        14.023193568         5.258697719
    12.270293980        14.023193568         8.764495850
    12.270293980        14.023193568        12.270293980
    12.270293980        14.023193568        15.776092111
    15.776092111         0.000000000         1.752899196
    15.776092111         0.000000000         5.258697719
    15.776092111         0.000000000         8.764495850
    15.776092111         0.000000000        12.270293980
    15.776092111         0.000000000        15.776092111
    15.776092111         3.505798392         1.752899196
    15.776092111         3.505798392         5.258697719
    15.776092111         3.505798392         8.764495850
    15.776092111         3.505798392        12.270293980
    15.776092111         3.505798392        15.776092111
    15.776092111         7.011596784         1.752899196
    15.776092111         7.011596784         5.258697719
    15.776092111         7.011596784         8.764495850
    15.776092111         7.011596784        12.270293980
    15.776092111         7.011596784        15.776092111
    15.776092111        10.517395437         1.752899196
    15.776092111        10.517395437         5.258697719
    15.776092111        10.517395437         8.764495850
    15.776092111        10.517395437        12.270293980
    15.776092111        10.517395437        15.776092111
    15.776092111        14.023193568         1.752899196
    15.776092111        14.023193568         5.258697719
    15.776092111        14.023193568         8.764495850
    15.776092111        14.023193568        12.270293980
    15.776092111        14.023193568        15.776092111
     1.752899196         1.752899196         0.000000000
     1.752899196         1.752899196         3.505798392
     1.752899196         1.752899196         7.011596784
     1.752899196         1.752899196        10.517395437
     1.752899196         1.752899196        14.023193568
     1.752899196         5.258697719         0.000000000
     1.752899196         5.258697719         3.505798392
     1.752899196         5.258697719         7.011596784
     1.752899196         5.258697719        10.517395437
     1.752899196         5.258697719        14.023193568
     1.752899196         8.764495850         0.000000000
     1.752899196         8.764495850         3.505798392
     1.752899196         8.764495850         7.011596784
     1.752899196         8.764495850        10.517395437
     1.752899196         8.764495850        14.023193568
     1.752899196        12.270293980         0.000000000
     1.752899196        12.270293980         3.505798392
     1.752899196        12.270293980         7.011596784
     1.752899196        12.270293980        10.517395437
     1.752899196        12.270293980        14.023193568
     1.752899196        15.776092111         0.000000000
     1.752899196        15.776092111         3.505798392
     1.752899196        15.776092111         7.011596784
     1.752899196        15.776092111        10.517395437
     1.752899196        15.776092111        14.023193568
     5.258697719         1.752899196         0.000000000
     5.258697719         1.752899196         3.505798392
     5.258697719         1.752899196         7.011596784
     5.258697719         1.752899196        10.517395437
     5.258697719         1.752899196        14.023193568
     5.258697719         5.258697719         0.000000000
     5.258697719         5.258697719         3.505798392
     5.258697719         5.258697719         7.011596784
     5.258697719         5.258697719        10.517395437
     5.258697719         5.258697719        14.023193568
     5.258697719         8.764495850         0.000000000
     5.258697719         8.764495850         3.505798392
     5.258697719         8.764495850         7.011596784
     5.258697719         8.764495850        10.517395437
     5.258697719         8.764495850        14.023193568
     5.258697719        12.270293980         0.000000000
     5.258697719        12.270293980         3.505798392
     5.258697719        12.270293980         7.011596784
     5.258697719        12.270293980        10.517395437
     5.258697719        12.270293980        14.023193568
     5.258697719        15.776092111         0.000000000
     5.258697719        15.776092111         3.505798392
     5.258697719        15.776092111         7.011596784
     5.258697719        15.776092111        10.517395437
     5.258697719        15.776092111        14.023193568
     8.764495850         1.752899196         0.000000000
     8.764495850         1.752899196         3.505798392
     8.764495850         1.752899196         7.011596784
     8.764495850         1.752899196        10.517395437
     8.764495850         1.752899196        14.023193568
     8.764495850         5.258697719         0.000000000
     8.764495850         5.258697719         3.505798392
     8.764495850         5.258697719         7.011596784
     8.764495850         5.258697719        10.517395437
     8.764495850         5.258697719        14.023193568
     8.764495850         8.764495850         0.000000000
     8.764495850         8.764495850         3.505798392
     8.764495850         8.764495850         7.011596784
     8.764495850         8.764495850        10.517395437
     8.764495850         8.764495850        14.023193568
     8.764495850        12.270293980         0.000000000
     8.764495850        12.270293980         3.505798392
     8.764495850        12.270293980         7.011596784
     8.764495850        12.270293980        10.517395437
     8.764495850        12.270293980        14.023193568
     8.764495850        15.776092111         0.000000000
     8.764495850        15.776092111         3.505798392
     8.764495850        15.776092111         7.011596784
     8.764495850        15.776092111        10.517395437
     8.764495850        15.776092111        14.023193568
    12.270293980         1.752899196         0.000000000
    12.270293980         1.752899196         3.505798392
    12.270293980         1.752899196         7.011596784
    12.270293980         1.752899196        10.517395437
    12.270293980         1.752899196        14.023193568
    12.270293980         5.258697719         0.000000000
    12.270293980         5.258697719         3.505798392
    12.270293980         5.258697719         7.011596784
    12.270293980         5.258697719        10.517395437
    12.270293980         5.258697719        14.023193568
    12.270293980         8.764495850         0.000000000
    12.270293980         8.764495850         3.505798392
    12.270293980         8.764495850         7.011596784
    12.270293980         8.764495850        10.517395437
    12.270293980         8.764495850        14.023193568
    12.270293980        12.270293980         0.000000000
    12.270293980        12.270293980         3.505798392
    12.270293980        12.270293980         7.011596784
    12.270293980        12.270293980        10.517395437
    12.270293980        12.270293980        14.023193568
    12.270293980        15.776092111         0.000000000
    12.270293980        15.776092111         3.505798392
    12.270293980        15.776092111         7.011596784
    12.270293980        15.776092111        10.517395437
    12.270293980        15.776092111        14.023193568
    15.776092111         1.752899196         0.000000000
    15.776092111         1.752899196         3.505798392
    15.776092111         1.752899196         7.011596784
    15.776092111         1.752899196        10.517395437
    15.776092111         1.752899196        14.023193568
    15.776092111         5.258697719         0.000000000
    15.776092111         5.258697719         3.505798392
    15.776092111         5.258697719         7.011596784
    15.776092111         5.258697719        10.517395437
    15.776092111         5.258697719        14.023193568
    15.776092111         8.764495850         0.000000000
    15.776092111         8.764495850         3.505798392
    15.776092111         8.764495850         7.011596784
    15.776092111         8.764495850        10.517395437
    15.776092111         8.764495850        14.023193568
    15.776092111        12.270293980         0.000000000
    15.776092111        12.270293980         3.505798392
    15.776092111        12.270293980         7.011596784
    15.776092111        12.270293980        10.517395437
    15.776092111        12.270293980        14.023193568
    15.776092111        15.776092111         0.000000000
    15.776092111        15.776092111         3.505798392
    15.776092111        15.776092111         7.011596784
    15.776092111        15.776092111        10.517395437
    15.776092111        15.776092111        14.023193568
