Prec = Med
LPLANE = .TRUE. # good for large cells
LREAL = .TRUE. # projection in reciprocal space, good for large cells
RWIGS = 1 1 1 1 # wigner seitz radius (need a number for each atom type)
LWAVE = .FALSE. # determines if WAVECAR is written
LCHARG = .FALSE. # determines if CHGCAR/CHG are written
MAXMIX = 30 #something to do with dielectric function, also for MD
ISYM = 0 #switch of symmetry, for MD
SMASS = 0 #
LSCALAPACK = .TRUE.
ALGO = VeryFast
IALGO= 48
NSW = 2000
ISMEAR = -1;SIGMA = 0.2 # smearing method
ALGO = Med
EDIFF = 1E-3 ; NELMIN=5 #
LREAL = Auto # real space projector
MAXMIX = 40 ; AMIX = 1.0 ; BMIX = 1.0 # optimize charge mixer for Si
LCHARG = False
IALGO=48
NELMIN=5
ISYM=0
NPAR =8
ADDGRID = TRUE
ENCUT=440
##### MD - related #################
RANDOM_SEED = 689642361 62398
IBRION = 0 # MD
ISIF=3 # variable lattice parameters
POTIM=2
MDALGO=3 # Langevin dynamics
TEBEG=3000
TEEND=3000
LANGEVIN_GAMMA = 60.0 60.0 60.0 60.0 # friction coef. for atomic DoFs
LANGEVIN_GAMMA_L=60.0 # friction coef. for lattice DoFs
PMASS=120 # mass for lattice DoFs
PSTRESS =0.0001 # 0.001 0.001 0 0 0 Targeted stress tensor values in Kbar