# LAMMPS Input File for Grain Boundaries 
# Michael Hoerner 2014 
# Sigma 5 Pure Twist For ADF

#-------------------- Initialization -----------------------------------------------------
clear 
units metal 
dimension 3 
boundary p p p 

# ---------- Create Atomistic Structure --------------------- 
atom_style atomic

lattice fcc 3.5101 

region whole block 0 30 -30 30 0 12 units box 
create_box 2 whole 

region upper block 0 30 0 30 0 12 units box 
lattice fcc 3.5101 orient x 2 1 0 orient y 1 -2 0 orient z 0 0 -1 
create_atoms 1 region upper 

region lower block 0 30 -30 0 0 12 units box 
lattice fcc 3.5101 orient x 1 2 0 orient y 2 -1 0 orient z 0 0 -1 
create_atoms 2 region lower 

group upper type 1 # Fe
group lower type 2 # Fe

#-------------------- Force field --------------------------------------------------------
pair_style eam/alloy 
#pair_coeff * * Fe.set Fe Fe 
pair_coeff * * Fe_Olsson_CMS2009.eam.alloy Fe Fe 

#-------------------- Settings -----------------------------------------------------------
neighbor 2.0 bin 
neigh_modify delay 10 check yes

# ------------------- Displace atoms and delete overlapping atoms ------------------------
displace_atoms upper move 0 0 0 units lattice 
delete_atoms overlap 0.35 lower upper 

# ------------------- Define Settings ----------------------------------------------------
compute   csym all centro/atom fcc 
compute    eng all pe/atom 
compute eatoms all reduce sum c_eng

#-------------------- Energy Minimization ------------------------------------------------
reset_timestep 0 
thermo 10 
thermo_style custom step pe lx press pxx c_eatoms 
dump 1 all cfg 25 cfg/dump.sig5_minimization_*.cfg mass type xs ys zs c_csym c_eng fx fy fz 
dump_modify 1 element Fe Fe 
min_style cg 
minimize 1e-15 1e-15 20000 20000 
undump 1 

# ------------------- Calculate GB Energy ------------------------------------------------
variable minimumenergy equal -3.360000 
variable    esum equal "v_minimumenergy * count(all)" 
variable   xseng equal "c_eatoms - (v_minimumenergy * count(all))" 
variable  gbarea equal "lx * lz * 2" 
variable     gbe equal "(c_eatoms - (v_minimumenergy * count(all)))/v_gbarea" 
variable gbemJm2 equal ${gbe}*16021.7733 
variable  gbernd equal round(${gbemJm2}) 
print "GB energy is ${gbemJm2} mJ/m^2"

# ------------------- Dump data into Data file -------------------------------------------
reset_timestep 0 
dump 1 all cfg 10000 cfg/dump.Fe_sig5_PureTwist_*.cfg mass type xs ys zs c_csym c_eng fx fy fz 
dump_modify 1 element Fe Fe 
minimize 1e-15 1e-15 5000 5000 
undump 1 

#---------- output file settings -------------------------
write_restart restart.Fe_sig5_PureTwist_stgb 
#---------------------------------------------------------
print "All done" 
#-------------------- End ----------------------------------------------------------------