# 3.5 The LAMMPS Scheme

variable CuLatCst equal 3.615 # lattice constant, 3.61492505

variable sizeX equal 15 #lattice units
variable sizeY equal 15 #lattice units
variable sizeZ equal 6 #lattice units
variable tsizeX equal 2 #lattice units
variable tsizeY equal 2 #lattice units
variable tsizeZ equal 16 #lattice units

units metal
atom_style atomic
boundary p p fs
lattice fcc ${CuLatCst} orient x 0 0 1 orient y 1 -1 0 orient z 1 1 0

region base block $(-v_sizeX) $(v_sizeX) $(-v_sizeY) $(v_sizeY) $(-v_sizeZ) 0 units lattice #Define the region of substrate

region tip block $(-v_tsizeX) $(v_tsizeX) $(-v_tsizeY) $(v_tsizeY) 0 $(v_tsizeZ) units lattice #Define the region of nanoprotrusion

region wholeBox union 2 base tip

create_box 1 wholeBox
create_atoms 1 region wholeBox

pair_style eam #Potential
pair_coeff 1 1 ./Cu_u3.eam

variable inff equal 5e9 # pseudo infinity
variable lower equal "zlo+3.0" # z max of the fixed layer

region botreg block -${inff} ${inff} -${inff} ${inff} -${inff} ${lower} units box
group botgroup region botreg

fix botforce botgroup setforce 0.0 0.0 0.0

timestep 0.002

variable runtime0 equal 75000 # 150ps Time of the relaxing period
variable temperature equal 300

fix nve1 all nve

velocity movgroup create ${temperature} 5343 #87287

fix nvt1 all temp/berendsen ${temperature} ${temperature} 0.1

dump 1 all custom 500 trajectory1.lammpstrj id x y z

run ${runtime0}

