# Example LAMMPS script
# Description of the LAMMPS-program below
# The sample size is 100x24x24 unit cells, consisting of tungsten atoms with crystal
# direction [1 0 0] and has a lattice parameter 3.14339Å.
# The temperature is 700K.
# Potential function EAM4.
# Time step length 5fs.
# Boundary conditions pss.
# This simulation first performs a relaxation process consisting of 50000 time steps.
# Thereafter it performs a tensile test where the strain rate is 1 ∗ 108/s. Here there
# are 500000 time steps. The screen output every 50 time steps will be: step number,
# current length, volume, temperature, stress in x-direction, strain.

variable lx  equal 3.14339

#Defining type of atoms, dimensions and boundary conditions.
units metal
dimension 3
boundary p s s
atom_style atomic
variable latconst equal 3.14339

#Defining the lattice crating the toms.
lattice bcc ${latconst}
region nanowire block 0 314.339 0 75.44136 0 75.44136 units box
create_box 3 nanowire
lattice bcc ${latconst} orient x 1 0 0 orient y 0 1 0 orient z 0 0 1
create_atoms 1 region nanowire ratio 1 124546

#Defining the mass and atomic potential
mass * 183.84
pair_style eam/fs
pair_coeff * * w_eam4.fs W W W

#-----------------relaxation process-----------------

#Creating initial velocities.
velocity all create 700 511124 rot yes mom yes

#Defining timeintegration, ensemble and temperature
fix 1 all npt temp 700 700 0.1 x 0 0 100

#Store final cell length for strain calculations
variable tmp equal "lx"
variable L0 equal ${tmp}
print "Initial Length, L0; ${L0}"

#Compute the stress for each atom and sum each component for all atoms
compute peratom all stress/atom NULL
compute sigmaxx all reduce ave c_peratom[1]

#Create a variable called strain, which calculates the strain.
variable strain equal "(lx - v_L0)/v_L0"

#Screen output
thermo 50
thermo_style custom step lx vol temp c_sigmaxx v_strain
dump 1 all atom 500 dump.all
dump_modify 1 append yes
#----------------------------
dump            d1 all cfg 50 cfg/run.*.cfg mass type xs ys zs id type vx vy vz fx fy fz
dump_modify     d1 element W W W
#----------------------------

#Defining the timestep and number of timesteps.
timestep 0.005
run 50000

unfix 1

#-----------------deformation process-----------------

#Defining strain rate.
fix 9 all deform 1 x vel 0.0314339 units box

#Defining timeintegration, ensemble and temperature.
fix 6 all nvt temp 700 700 0.1

#Defining the number of timestep
run 500000

print "All done"