# 3. LAMMPS Script for Tension Simulation
# LAMMPS 64-bit 22Dec2022-MSMPI

#-------------------- Environment Settings -----------------------------------------------
echo both

#-------------------- Read structure file -------------------------------------------------
read_restart restart.dat

#-------------------- Force field --------------------------------------------------------
pair_style eam/alloy
pair_coeff * * cu_ag_ymwu.eam.alloy Ag Cu

#-------------------- Settings -----------------------------------------------------------
timestep 0.005 # 5 [fs]

#-------------------- Equilibration from 500 K to 300 K under zero stress (NPT) ----------
thermo_style one
thermo 1000

dump 11 all custom 10000 coord0.xyz xs ys zs id type
fix  16 all npt temp 500 300 0.05 aniso 0.0 0.0 0.12 drag 2

run 20000

unfix 16
undump 11

#-------------------- Equilibration at 300 K under zero stress (NPT) ---------------------
thermo_style one
thermo 1000

dump 10 all custom 10000 coord0.xyz xs ys zs id type
fix  15 all npt temp 300 300 0.05 aniso 0.0 0.0 0.12 drag 2

run 20000

unfix 15
undump 10

#-------------------- Deformation simulation (NPT) ---------------------------------------
restart 50000 restart

reset_timestep 0

compute ctr all cna/atom 3.491   # calculates the CNA (Common Neighbor Analysis) pattern
compute str all stress/atom NULL
compute  pe all pe/atom

fix  5 all ave/time 100 5 1000 c_thermo_press[1] c_thermo_press[2] c_thermo_press[3] file pressure.ave
fix 25 all deform 1 x erate 0.0001
fix 35 all npt temp 300.0 300.0 0.05 y 0.0 0.0 0.12 z 0.0 0.0 0.12 drag 2

#-------------------- loop start (Note: It just splits the output.)
variable a loop 20

label repeat20

dump 45 all custom 1000 coord$a.xyz xs ys zs id type c_ctr c_str[1] c_pe

run 10000

undump 45

next a

jump in_step2_Tension.lmp repeat20
#-------------------- loop end

#-------------------- End ----------------------------------------------------------------