# LAMMPS 64-bit 22Dec2022-MSMPI
clear
#-------------------- Environment Settings -----------------------------------------------

variable t equal 500.0 # Temperature [K]

#-------------------- Initialization -----------------------------------------------------
units metal
boundary p p p
newton on

#-------------------- Atom & Lattice description ----------------------------------------
atom_style atomic

#--------------------------------------------------------------
# case 1: make structure (40 x 40 x 40 [Angstrom^3], 4 x 4 x 4 [nm^3])
#--------------------------------------------------------------
lattice fcc 4.09 # Ag:4.09 Angstrom, Cu: 3.61 Angstrom

region box block 0 40 0 40 0 40 units box
create_box 2 box # set 2 types (for 2 elements (type 1:Ag and type 2: Cu))

region  ag block 0 40 0 40 0 40 units box
create_atoms 1 region ag units box

# creating composition using set command for Ag92-Cu8 alloy
set region ag type/fraction 2 0.08 12393 # set Cu 8%, randomly.

replicate 1 1 1 # (replicate 22 22 22 in paper)
#--------------------------------------------------------------

#--------------------------------------------------------------
# case 2: read structure
#--------------------------------------------------------------
#read_data Ag92-Cu8.data
#--------------------------------------------------------------

#-------------------- Force field --------------------------------------------------------
pair_style eam/alloy
pair_coeff * * cu_ag_ymwu.eam.alloy Ag Cu

#-------------------- Settings -----------------------------------------------------------
fix integrate all nve

thermo 100
thermo_modify flush yes

#-------------------- Energy Minimization ------------------------------------------------
# 0 [K], structure optimization
#min_style cg
#minimize 1.0e-10 1.0e-12 1000 10000

#-------------------- Settings -----------------------------------------------------------
reset_timestep 0

timestep 0.002 # 2 [fs]

compute potene all pe/atom

velocity all create $t 4928459 rot yes dist gaussian

#-------------------- Run the MC simulation (Temperature and pressure control) -----------
fix  T_control all temp/rescale 10 $t $t 5. 1
fix press_ctrl all press/berendsen aniso 0.0 0.0 1000.0

fix mc all sgcmc 100000 1 $t -2.5 randseed 324234 variance 100 0.940 window_moves 8

thermo_style custom step temp pe etotal press lx ly lx f_mc[1] f_mc[2] f_mc[3] f_mc[4]

#---------- output file settings ------------------------
dump 2 all custom 500 frames_file/frames-3Cu.dat.* x y z type c_potene
#--------------------------------------------------------
dump            d1 all cfg 500 cfg/run.*.cfg mass type xs ys zs id type vx vy vz fx fy fz
dump_modify     d1 element Ag Cu
#--------------------------------------------------------
restart 500 restart_file/restart.dat # output data for in_step2_Tension.lmp

run 1000000

unfix mc

#-------------------- Output data file ---------------------------------------------------
write_data Ag92-Cu8.data # output data for in_step2_Tension.lmp

#-------------------- End ----------------------------------------------------------------