#------------------------------------------------------------------------------------------
# Appendices
# A LAMMPS input script for generating amorphous carbon and computing the
# thermal conductivity using the Green-Kubo method
#------------------------------------------------------------------------------------------
# LAMMPS 64-bit 22Dec2022-MSMPI
#------------------------------------------------------------------------------------------
# NIST, Interatomic Potentials (Force Fields): https://www.ctcms.nist.gov/potentials/
#------------------------------------------------------------------------------------------

#####################################################
# Initialization ####################################
#####################################################

units metal                  # Type of units used

# Variables #########################################

variable T1 equal 15000      # Kelvin
variable T2 equal 300        # Kelvin
variable  V equal vol        # Volume
variable dt equal 0.0001     # Time step
variable  p equal 10000      # Correlation length
variable  s equal 10         # Sample interval
variable  d equal $p*$s      # Dump interval

# Setup #############################################

dimension 3                  # Defines a 3D simulation
boundary p p p               # Defines periodic boundary conditions
atom_style charge            # Defines atom types to be charge
lattice diamond 3.57         # Defines a diamond lattice with unit length 
                             # 3.57 A
region box block 0 6 0 6 0 6 # Defines a 3D block region called "box" that
                             # is made up of the unit cell repeated 6 times
                             # in the x-, y-, and z-directions
create_box 1 box             # Creates the simulation box defined by the
                             # previous region command
create_atoms 1 box           # Creates the atoms within the simulation box
                             # according to the defined lattice
mass 1 12.0107               # Defines the molar mass of atom type 1
group carbonatoms type 1     # Assigns the name carbonators to atom type 1

# Interatomic potential #############################

pair_style airebo 3.0        # Defines the pair style for the atomic potential
                             # interactions to be AIREBO
pair_coeff * * CH.airebo C   # Defines the interactions to be between carbon
                             # atoms
neighbor 2.0 bin             # The neighbor distance is given by the potential
                             # cutoff + 2A
neigh_modify delay 10 every 1 check yes # Rebuilds the neighbor every 10 time steps only
                             # if an atom has moved at least half the
                             # skin distance

#####################################################
# Equilibration and thermalization ##################
#####################################################

fix 1 all box/relax iso 0.0 vmax 0.001 # Zero pressure condition applied to external
                             # bounds of simulation box
min_modify line quadratic    # Applies a quadratic line search algorithm for
                             # the energy minimization
minimize 0.000001 0.00000001 10000 100000 # Iteratively adjusts atom coordinates to
                             # minimize the energy of the system
unfix 1                      # Stops the zero pressure condition
timestep ${dt}               # Sets the time step to 0.1 fs
thermo 500                   # Outputs thermodynamic data every 500 time steps
reset_timestep 0             # Resets the time step counter to zero
dump 1 carbonatoms xyz 1000 Melt.1.xyz # Outputs coordinates to Melt.1.xyz
dump 2 all atom 1000 Melt.1.lammpstrj  # Outputs coordinates to Melt.1.lammpstrj
velocity all create ${T1} 102486 mom yes &
  rot yes dist gaussian # Randomly sets initial velocity to correspond 
                             # with 15,000 K
fix NVT all nvt temp ${T1} ${T2} 0.09 drag 0.4 # Integrates atomic positions using the NVT
                             # ensemble as temperature is decreased from
                             # 15,000 K to 300 K
run 80000                    # Runs the integration in NVT for 80,000 time
                             # steps
unfix NVT                    # Ends the NVT integration
fix NVT2 all nvt temp ${T2} ${T2} 0.09 drag 0.4 # Integrates atomic positions using the NVT
                             # ensemble for a temperature of 300 K
run 100000
undump 1                     # Ends the output of coordinates to Melt.1.xyz
undump 2                     # Ends the output of coordinates to
                             # Melt.1.lammpstrj
write_restart endNVT.restart # Writes a restart file to endNVT.restart
restart $d Melt.*.restart    # Writes a restart file every 100,000 time steps
dump 3 carbonatoms xyz 10000 Melt.2.xyz # Outputs coordinates to Melt.2.xyz
dump 4 all atom 10000 Melt.2.lammpstrj  # Outputs coordinates to Melt.2.lammpstrj

#####################################################
# Green Kubo Method #################################
#####################################################

compute myKE all ke/atom     # Computes the kinetic energy per atom
compute myPE all pe/atom     # Computes the potential energy per atom
compute myStress all stress/atom virial # Computes the stresses per atom excluding
                             # kinetic energy contributions
compute flux all heat/flux myKE myPE myStress # Computes the heat flux vector
variable Jx equal c flux[1]/vol
variable Jy equal c flux[2]/vol
variable Jz equal c flux[3]/vol
fix JJ all ave/correlate $s $p $d c_flux[1] & 
  c_flux[2] c_flux[3] type auto file &
  J0Jt_Melt.dat ave running  # Calculates the heat current autocorrelation function
thermo $d                    # Outputs thermodynamic data every 100,000 time
                             # steps
thermo_style custom step temp v_Jx v_Jy v_Jz # Defines the thermodynamic data to output
run 45000000                 # Runs the Green Kubo method for 45,000,000 time
                             # steps
write_restart end.restart    # Writes a restart file end.restart#------------------------------------------------------------------------------------------