
#-------------------- Initialization -----------------------------------------------------
units metal
dimension 3
boundary p p p

#-------------------- Read structure file ------------------------------------------------
atom_style full
read_data ZnS_wurtzite.data

replicate 3 3 2

#---------- output file settings -------------------
write_data ZnS_3x3x3x2_dihedral_CoreCore.data

print "All done"
#-------------------- End ----------------------------------------------------------------