# b.4 example lammps input script
# Below is listed one of the input scripts we have used for one of the earliest
# simulations of a single C60 molecule freely diffusing on a C60(111) surface
# (here at T = 300 K). As an interaction potential, a tabulated Girifalco potential was 
# supplied via the file girifalco.table. Comprehensive explanations for
# all the commands can be found in the online LAMMPS documentation at https://lammps.sandia.gov/doc/.

#example surface diffusion script for C60 on C60

#basic system parameters
dimension 3
units metal
atom_style atomic
boundary p p f

#definition of a grid on which to place particles
lattice custom 1.0 &
  a1 10.0 0.0 0.0 &
  a2 5.0 8.66 0.0 &
  a3 5.0 2.86 8.14 &
  basis 0.2 0.2 0.2

#creation of the simulation box
region box block 0 4 0 6 0 10
create_box 2 box

#creation of particles
region substrate block INF INF INF INF INF 4
create_atoms 1 region substrate
create_atoms 2 single 3.00 2.0 4.5

#Definition of pair potentials
pair_style table linear 1200
pair_coeff * * girifalco.table GIRIFALCO_C60 20
pair_coeff 1 2 girifalco.table GIRIFALCO_C60 20
mass * 720.66
neigh_modify delay 0

#grouping of particles
group addatoms type 2
region mobile block 0 4 0 6 1 4
group mobile region mobile
region slab block 0 3 0 5 5 6

# compute commands to access temperature of mobile particles
compute mob mobile temp
compute_modify mob dynamic yes extra 0

#Some log output options
thermo_style custom step atoms temp epair etotal press
thermo 10000
thermo_modify temp mob

#Randomization Run
fix 1 addatoms nve #nve: Verlet integrator
fix 3 mobile nve
fix 2 mobile langevin 300 300 0.01 332115279
timestep 0.01
run 100000

#Temp Monitoring Run
variable newTemp equal "300/f_2*
c_mob"
reset_timestep 0
unfix 2
fix 2 mobile ave/time 50 2 200 c_mob ave window 250
fix 4 mobile temp/rescale 50000 v_newTemp 300 1.0 1.0
run 352000

#Measurement Run
reset_timestep 0
unfix 4
unfix 2
dump 1 addatoms xyz 200 ./OutputFile.out
run 40000000

