#LAMMPS Input file
# Title
clear

# ----- condition settings -----

variable    temp index 1298.0 # K

variable    pres index 1.0 # 0.1 MPa (bar units)

# ----- thermal conductivity calculation settings-----
# Sample LAMMPS input script for thermal conductivity
units       metal
variable    T equal ${temp}
variable    V equal vol
variable   dt equal 0.0010  # 1.0 fs
variable    p equal 400     # correlation length
variable    s equal 5      # sample interval
variable    d equal $p*$s   # dump interval

# convert from LAMMPS real units to SI
# metal units case
variable    kB equal 1.3806504e-23    # [J/K] Boltzmann
variable    bar2Pa equal 100000.0 # bar to Pa (pressure)
variable    A2m equal 1.0e-10  # Angstrom to metol (length)
variable    ps2s equal 1.0e-12 # ps to s (time)
variable    convert equal ${bar2Pa}*${bar2Pa}*${ps2s}*${A2m}*${A2m}*${A2m}
# real units case
# variable    kB equal 1.3806504e-23    # [J/K] Boltzmann
# variable    atm2Pa equal 101325.0 # atm to Pa (pressure)
# variable    A2m equal 1.0e-10  # Angstrom to metol (length)
# variable    fs2s equal 1.0e-15 # fs to s (time)
# variable    convert equal ${atm2Pa}*${atm2Pa}*${fs2s}*${A2m}*${A2m}*${A2m}

# setup problem
atom_style   atomic
dimension    3
boundary     p p p
read_data    data_5x4x4.in
replicate    1 1 1

# ----- Potential settings (MEAM)-----
# -----HEA (Co-Ni-Cr-Fe-Mn)
pair_style      meam/c
pair_coeff      * * ../potentials/meam/CoNiCrFeMn.HEA.library.meam Co Ni Cr Fe Mn ../potentials/meam/CoNiCrFeMn.HEA.meam Co Ni Cr Fe Mn
# -----(Al-Si-Mg-Cu-Fe)
#pair_style      meam/c
#pair_coeff      * * ../potentials/meam/Jelinek_2012_meam AlS SiS MgS CuS FeS ../potentials/meam/Jelinek_2012_meam.alsimgcufe AlS SiS MgS CuS FeS

# ----- Potential settings (EAM)-----
# -----(Ag-Au-Cu-Ni-Pd-Pt)
#pair_style      eam
#pair_coeff      1 * ../potentials/eam/DYNAMO/cuu6.txt
#pair_coeff      2 * ../potentials/eam/DYNAMO/agu6.txt
#pair_coeff      3 * ../potentials/eam/DYNAMO/auu6.txt
#pair_coeff      4 * ../potentials/eam/DYNAMO/niu6.txt
#pair_coeff      5 * ../potentials/eam/DYNAMO/ptu6.txt

# ----- Potential settings (EIM)-----
#pair_style      eim
#pair_coeff      * * Li Na K Rb Cs F Cl Br Id ../potentials/eim/BrClCsFIKLiNaRb.ffield.eim F K Li Na Rb

timestep     ${dt}
thermo       $d

# pre process
fix          f1 all box/relax iso 0.0
minimize     1.0e-10 0.0 1000 100000
unfix        f1

# output file
dump         d1 all cfg 100 cfg/run.*.cfg mass type xs ys zs id type
dump_modify  d1 element Co Ni Cr Fe Mn
#dump_modify  d1 element Al Si Mg Cu Fe  # Al-Si-Mg-Cu-Fe
variable     energy equal etotal
variable     temperature equal temp
fix          f1 all ave/time 1 100 100 v_energy v_temperature file out_energy.txt

# equilibration and thermalization
velocity     all create $T 123456
fix          NPT all npt temp $T $T $(100.0*dt) iso 0.0 ${pres} $(1000.0*dt)
run          8000
unfix        NPT
#
fix          NVT all nvt temp $T $T $(100.0*dt)

# ----- Radial Distribution Function -----
#comm_modify  cutoff 14
compute      distribution all rdf 240
fix          f1 all ave/time 1 1000 3000 c_distribution[*] file out_rdf.txt mode vector

# ----- Mean Square Displacement -----
group        Co type 1
compute      Comsd Co msd
fix          f2 all ave/time 1 1 5 c_Comsd[*] file out_Co_msd.txt
# -----
group        Ni type 2
compute      Nimsd Ni msd
fix          f3 all ave/time 1 1 5 c_Nimsd[*] file out_Ni_msd.txt
# -----
group        Cr type 3
compute      Crmsd Cr msd
fix          f4 all ave/time 1 1 5 c_Crmsd[*] file out_Cr_msd.txt
# -----
group        Fe type 4
compute      Femsd Fe msd
fix          f5 all ave/time 1 1 5 c_Femsd[*] file out_Fe_msd.txt
# -----
group        Mn type 5
compute      Mnmsd Mn msd
fix          f6 all ave/time 1 1 5 c_Mnmsd[*] file out_Mn_msd.txt
# -----
compute      allmsd all msd
fix          f7 all ave/time 1 1 5 c_allmsd[*] file out_all_msd.txt

fix          f8 all nvt temp ${temp} ${temp} $(100.0*dt)
run          3000
unfix        f1
unfix        f2
unfix        f3
unfix        f4
unfix        f5
unfix        f6
unfix        f7
unfix        f8

# thermal conductivity calculation, switch to NVE if desired
unfix        NVT
fix          NVE all nve

reset_timestep 0
variable     pxy equal pxy
variable     pxz equal pxz
variable     pyz equal pyz
fix          SS all ave/correlate $s $p $d &
             v_pxy v_pxz v_pyz type auto file S0St.dat ave running
variable     scale equal ${convert}/(${kB}*$T)*$V*$s*${dt}
variable     v11 equal trap(f_SS[3])*${scale}
variable     v22 equal trap(f_SS[4])*${scale}
variable     v33 equal trap(f_SS[5])*${scale}
thermo_style custom step temp press v_pxy v_pxz v_pyz v_v11 v_v22 v_v33
run          100000
variable     v equal (v_v11+v_v22+v_v33)/3.0
variable     ndens equal count(all)/vol
print        "average viscosity: $v [Pa.s] @ $T K, ${ndens} /A^3"

# ----- Output restart data -----
write_data data.in.restart