# LAMMPS INPUT SCRIPT for Crack Simulations

#-------------------- Initialization -----------------------------------------------------
variable T equal 100

units metal
boundary p p p 
atom_style atomic

#-------------------- Read structure file ------------------------------------------------
read_data MoS2_pristine.lmp # 2x1x1 supercell (from unit cell)
replicate 4 8 1             # 8x8x1 supercell (from unit cell)

#-------------------- Force field --------------------------------------------------------
pair_style sw
#pair_coeff * * h-mos2.sw S1 Mo1 S2 S3 Mo2 S4 S5 Mo3 S6 S7 Mo4 S8
pair_coeff * * mos2.sw Mo S

#-------------------- Settings -----------------------------------------------------------
# Computes Required
compute csym all centro/atom 12
compute 2 all stress/atom NULL virial
compute mytemp all temp
compute 11 all reduce sum c_2[1]
compute 12 all reduce sum c_2[2]
compute 13 all reduce sum c_2[3]
compute 14 all reduce sum c_2[4]
compute 15 all reduce sum c_2[5]
compute 16 all reduce sum c_2[6]

neighbor 2 bin
neigh_modify delay 10

#-------------------- Energy Minimization ------------------------------------------------
thermo 1000
thermo_style custom step temp etotal press pxx pyy pzz lx ly lz

# 0 [K], structure optimization
min_style cg
minimize 1e-15 1e-15 5000 10000

#-------------------- Energy Equilibriation ----------------------------------------------
reset_timestep 0

timestep 0.001

velocity all create $T 87287 mom yes rot yes dist gaussian #change

fix 1 all nve
fix 2 all temp/rescale 10 $T $T 1.0 0.5
#dump 1 all custom 1000 dump.nve.defo.* id type x y z c_csym c_2[1] c_2[2] c_2[3] c_2[4] c_2[5] c_2[6]
run 50000 #run 500000
unfix 1
unfix 2
#undump 1

#-------------------- Pressure Equilibriation --------------------------------------------
reset_timestep 0

fix 1 all npt temp $T $T 50.0 iso 0.0 0.0 10 drag 0.0
#dump 1 all custom 1000 dump.npt.defo.* id type x y z c_csym c_2[1] c_2[2] c_2[3] c_2[4] c_2[5] c_2[6] #change
run 100000 
unfix 1
#undump 1

#-------------------- Equilibriation------------------------------------------------------
reset_timestep 0

fix 1 all nvt temp $T $T 50
#dump 1 all custom 1000 dump.nvt.defo.* id type x y z c_csym c_2[1] c_2[2] c_2[3] c_2[4] c_2[5] c_2[6]
run 50000 #run 500000 
unfix 1
#undump 1

#------------------- Storing Initial length ----------------------------------------------
variable tmp equal "ly"
variable L0 equal ${tmp}
print "Initial Length, L0: ${L0}"
#variable strain equal "v_srate/1e12"

#------------------- Deformation ----------------------------------------------------------
reset_timestep 0

fix 1 all deform 1 y erate 0.001 units box 

#change direction along stress direction
fix 2 all nvt temp $T $T 50
fix 3 all ave/atom 1 100 100 c_2[*]

variable strain equal "(ly - v_L0)/v_L0"
variable p1 equal "v_strain"
variable p2 equal "-pxx/10000"
variable p3 equal "-pyy/10000"
variable p4 equal "-pzz/10000"
variable p5 equal "lx"
variable p6 equal "ly"
variable p7 equal "lz"
variable p8 equal "temp"
variable p9 equal "pe"
variable p10 equal "ke"
variable p11 equal "-pxy/10000"
variable p13 equal "-pyz/10000"
variable p12 equal "-pxz/10000"
variable fm equal "(v_p2+v_p3+v_p4)/3" ##### Hydrostatic stress
variable sf equal "lz/10"
variable m2 equal "v_p2*v_sf"
variable m3 equal "v_p3*v_sf"
variable m4 equal "v_p4*v_sf"
variable fv equal "sqrt((v_p2-v_p3)^2+(v_p3-v_p4)^2+(v_p4-v_p2)^2+6*(v_p11^2+v_p12^2+v_p13^2)/2)" # Von Mises Stress
variable t equal "v_fm/v_fv"
variable fd equal (((v_p2-v_fm)*(v_p3-v_fm)*(v_p4-v_fm))-v_p11^2*(v_p4-v_fm)-v_p12^2*(v_p3-v_fm)-v_p13^2*(v_p2-v_fm)+2*v_p11*v_p12*v_p13)####Deviatoric Von Mises stress

#---------- output file settings -------------------
#dump 2 all custom 100 dump.defo.* id type x y z c_csym f_3[1] f_3[2] f_3[3] f_3[4] f_3[5] f_3[6]
#dump out all xyz 1000 output.xyz
#dump_modify out element Sn
#dump DUMP1 all atom 1000 dump_C.lammpstrj

#-------------------- Run the simulation -------------------------------------------------
fix def_print all print 1000 "${p1} ${p2} ${p3} ${p4} ${p5} ${p6} ${p7} ${p8} ${p9} ${p10} ${p11} ${p12} ${p13} ${fm} ${fv} ${t} ${fd}" file result.txt screen no
fix def_print2 all print 1000 "${p1} ${m2} ${m3} ${m4} " file result_final.txt screen no
run 300000 #30% run time

#-------------------- End ----------------------------------------------------------------