Cu4
1.0
        3.621262         0.000000         0.000000
        0.000000         3.621262         0.000000
        0.000000         0.000000         3.621262
   Cu
    4
Direct
     0.000000         0.000000         0.000000
     0.000000         0.500000         0.500000
     0.500000         0.000000         0.500000
     0.500000         0.500000         0.000000
