Cu1
1.0
        2.5606188774         0.0000000000         0.0000000000
        1.2803092911         2.2175610825         0.0000000000
        1.2803092911         0.7391869707         2.0907366589
   Cu
    1
Direct
     0.000000000         0.000000000         0.000000000
