# 4.2 Tensile Deformation of Nickel nanowire
#   3d tensile simulation (at strain rate 10^11 s^-1)

# LAMMPS 64-bit 22Dec2022-MSMPI
#-------------------- Environment Settings -----------------------------------------------
variable  Tdesird equal   50.0 # Desired Temperature [K]

variable   Nsteps equal   2000 # Number of simulation cycles
variable DumpFreq equal    100 # For print out

variable    dt_ps equal  0.002 # 0.002 [ps] = 2 [fs]

variable  es_rate equal    0.1 # engineering strain rate (1/time units)
# Note: 0.1 / (2e-15) = 5.0e13 [1/s], why 10^11 [1/s] ?
# check: strain rate 0.1/2[fs] = 0.05/1[fs] = 0.05/1e-15[s] = 0.05e15/1[s]
# L(t) = L(0)*(1 + es_rate*dt*step)
# strain [%] = es_rate*dt*Nstep*100 [%] = 0.1 * 0.002 * 2000 * 100 = 40 [%]

#-------------------- Initialization -----------------------------------------------------
echo both
units metal

#-------------------- Read structure file ------------------------------------------------
atom_style atomic

read_data DATAFILE.txt

#-------------------- Force field --------------------------------------------------------
pair_style eam
pair_coeff * * Ni_u3.eam 

#-------------------- Settings -----------------------------------------------------------
timestep ${dt_ps}

compute 1 all stress/atom NULL
compute 2 all temp
compute 3 all reduce sum c_1[2]

# volume of nanowire (not box !) = 3.14*(25/2)^2*100 (D = 25 Anggstrom, L = 100 Angstrom)
#variable     stress equal c_3/(3.14*(25/2)^2*100)
#-----------------------------------------------------
# atom radii per type (Ni: 135 pm)
variable r atom 1.35
compute v1 all voronoi/atom radius v_r
compute r0 all reduce sum c_v1[1]
variable         t3 equal c_r0
variable     stress equal c_3/v_t3
#-----------------------------------------------------
variable stress_GPa equal v_stress/1e4

variable    tmp equal ly
variable     lo equal ${tmp}
variable strain equal (ly-v_lo)/v_lo

thermo ${DumpFreq}
thermo_style custom step temp press vol etotal c_2 v_strain v_stress v_stress_GPa

#---------- output file settings -------------------
fix fo1 all ave/time 1 3 3 c_2 v_strain v_stress v_stress_GPa file stress_vs_strain.txt

#---------- output file settings -------------------
#dump 1 all atom 100 dump.JP4_tensile_review_10_11s-1_40_strain_f1_allatoms.lammpstrj
#dump 2 all custom ${DumpFreq} dump.stress_atom_Jp4_review_10_11s1_40_strain_f1_allatoms type x y z c_1[1] c_1[2] c_1[3] c_1[4] c_1[5] c_1[6]
#---------------------------------------------------
dump            d1 all cfg ${DumpFreq} cfg/run.*.cfg mass type xs ys zs id type vx vy vz fx fy fz
dump_modify     d1 element Ni
#---------------------------------------------------
#log log5050_JP4_review_10_11s-1_40_strain_f1_allatoms.dat

# initial velocities
velocity all create ${Tdesird} 482748 rot yes mom yes dist gaussian

#-------------------- Run the simulation -------------------------------------------------
fix 1 all deform 1 y erate ${es_rate}
fix 2 all npt temp ${Tdesird} ${Tdesird} $(5000*dt) x 0 0 $(5000*dt) z 0 0 $(5000*dt) dilate all
fix 3 all temp/rescale 10 ${Tdesird} ${Tdesird} 0.05 1.0

run ${Nsteps}

#-------------------- End ----------------------------------------------------------------

#-----------------------------------------------------------------------------------------
# Note
# compute        peratom all stress/atom NULL
# compute        p all reduce sum c_peratom[1] c_peratom[2] c_peratom[3]
# variable       press equal -(c_p[1]+c_p[2]+c_p[3])/(3*vol)
# # pxx = -c_p[1]/vol, pyy = -c_p[2]/vol, pzz = -c_p[3]/vol
# thermo_style   custom step temp etotal press v_press
# metal unit: press = bar = 0.1 MPa, length = Angstrom = 1e-10 m
#-----------------------------------------------------------------------------------------