# Example of an input file
#   C.1 SiC (3C) nanowire using MEAM potential

# LAMMPS 64-bit 22Dec2022-MSMPI
#-------------------- Environment Settings -----------------------------------------------
variable  Tdesird equal  298.0 # Desired Temperature [K]

variable   Nsteps equal   3000 # Number of simulation cycles (3 thousand iterations to reach a final strain of 30 %)
variable DumpFreq equal    100 # For print out

variable    dt_ps equal  0.001 # 0.001 [ps] = 1 [fs]

variable  es_rate equal    0.1 # engineering strain rate (1/time units)
# Note: 0.1 / (1e-15) = 1.0e14 [1/s]
# check: strain rate 0.1/1[fs] = 0.1/1e-15[s] = 0.1e15/1[s]
# L(t) = L(0)*(1 + es_rate*dt*step)
# strain [%] = es_rate*dt*Nstep*100 [%] = 0.1 * 0.001 * 3000 * 100 = 30 [%]

#-------------------- Zincblende SiC (3C) nanowire ---------------------------------------
units metal
dimension 3
boundary p p p
atom_style atomic

#-------------------- Lattice constants --------------------------------------------------
variable latconst_a equal 4.3596
variable latconst_c equal sqrt(3)*latconst_a
variable c_3C equal sqrt(3)

#-------------------- Change radius of nanowire ------------------------------------------
variable  rad_p equal 4.0
variable  rad_n equal -1*${rad_p}
variable height equal 6*${c_3C}

#-------------------- Geometric constants dependent on radius ----------------------------
variable SiC_yp equal sqrt(3)/2*${rad_p}
variable SiC_yn equal sqrt(3)/2*${rad_n}
variable SiC_xp equal 0.5*${rad_p}
variable SiC_xn equal 0.5*${rad_n}

#-------------------- Create simulation box ----------------------------------------------
lattice fcc ${latconst_a}
region simbox block -5 5 -5 5 -0.01 ${height}
create_box 2 simbox

#-------------------- Defining nanowire --------------------------------------------------
region nprism1 prism 0 ${rad_p} -0.01 ${SiC_yp} -0.01 ${height} ${SiC_xn} 0 0
region nprism2 prism ${rad_n} 0 -0.01 ${SiC_yp} -0.01 ${height} ${SiC_xp} 0 0
region nprism3 prism ${SiC_xn} ${SiC_xp} ${SiC_yn} -0.01 -0.01 ${height} ${SiC_xn} 0 0
region nprism4 prism ${SiC_xn} ${SiC_xp} ${SiC_yn} -0.01 -0.01 ${height} ${SiC_xp} 0 0

region nanowire union 4 nprism1 nprism2 nprism3 nprism4

#-------------------- Creating the zb lattice (normalized z[111]-direction) --------------
lattice custom ${latconst_a} &
  orient x 1 1 -2 orient y -1 1 0 orient z 1 1 1 &
  a1 1.0 0.0 0.0 &
  a2 0.0 1.0 0.0 &
  a3 0.0 0.0 1.0 &
  basis 0.0 0.0 0.0 basis 0.0 0.5 0.5 &
  basis 0.5 0.0 0.5 basis 0.5 0.5 0.0 &
  basis 0.25 0.25 0.25 basis 0.25 0.75 0.75 &
  basis 0.75 0.25 0.75 basis 0.75 0.75 0.25

#-------------------- Adding atoms -------------------------------------------------------
create_atoms 2 region nanowire &
  basis 1 1 basis 2 1 basis 3 1 basis 4 1 &
  basis 5 2 basis 6 2 basis 7 2 basis 7 2

group nanowire region nanowire

#-------------------- Defining Atomic ----------------------------------------------------
mass 1 28.085 # Si
mass 2 12.011 # C

group Si type 1
group  C type 2

#-------------------- Force field --------------------------------------------------------
pair_style meam/c
pair_coeff * * library.meam Si C SiC.meam Si C

#-------------------- Bar stat -----------------------------------------------------------

dump            d1 all cfg ${DumpFreq} cfg/run.relax.*.cfg mass type xs ys zs id type vx vy vz fx fy fz
dump_modify     d1 element Si C

fix RELAXBOX all box/relax iso 0.0

min_style sd
minimize 1e-6 1e-6 50000 100000

unfix RELAXBOX
undump d1

#-------------------- LOADING OF NANOWIRE ------------------------------------------------
reset_timestep 0

timestep ${dt_ps}

# Compute stress
compute stress  all stress/atom NULL
compute stress3 all reduce sum c_stress[3]

variable stress equal c_stress3
variable volu equal vol
variable   Lx equal lx
variable   Ly equal ly
variable   Lz equal lz

compute epatom all pe/atom

variable epot equal pe

variable    tmp equal lz
variable     lo equal ${tmp}
variable strain equal (lz-v_lo)/v_lo

# atom radii per type (Si-C: 188 pm, radius = 188/2 = 94 pm = 0.94 Angstrom)
variable r atom 0.94
compute v1 all voronoi/atom radius v_r
compute r0 all reduce sum c_v1[1] # Si
compute r1 all reduce sum c_v1[2] # C
variable         t3 equal (c_r0+c_r1)/2
variable     stress equal c_stress3/v_t3
variable stress_GPa equal v_stress/1e4

# Screen output
thermo ${DumpFreq}
thermo_style custom step vol temp pe lx ly lz pzz v_strain c_stress3 v_stress_GPa vol v_t3

#---------- output file settings -------------------
fix fo1 all ave/time 1 3 3 c_tempK v_strain v_stress v_stress_GPa file stress_vs_strain.txt

#---dump data to files----
#dump 1 all custom ${DumpFreq} SiC_3C.relax id type x y z c_stress[3] c_epatom
#dump_modify 1 append yes
#-------------------------
dump            d2 all cfg ${DumpFreq} cfg/run.nvt.*.cfg mass type xs ys zs id type vx vy vz fx fy fz
dump_modify     d2 element Si C
#-------------------------
#fix 1 all print 1000 "${stress} ${epot}" file SiC_3C.txt screen no

# Initial velocities
velocity all create ${Tdesird} 511124 rot yes mom yes

#-------------------- MD run (Loading) ---------------------------------------------------

# Start loading, strain rate of epsilon = 1e14 s^-1
fix LOAD nanowire deform 1 z erate 0.1 units box

# Timeintegration
fix NVT all nvt temp ${Tdesird} ${Tdesird} $(100*dt)

run ${Nsteps}

#--------------------------------------------------------------------------------
# The calculation conditions for this time are as follows.
#--------------------------------------------------------------------------------
variable strain_rate_percent equal "(v_strain)/(v_dt_ps * Nsteps)*100" # [%/ps]
variable strain_rate equal "(v_strain)/(v_dt_ps * Nsteps)" # [1/ps]
print "strain_rate: ${strain_rate_percent} [%/ps]"
print "strain rate: ${strain_rate} x 10^12 [1/s]"
#--------------------------------------------------------------------------------

#-------------------- SIMULATION DONE ----------------------------------------------------
print "All done"

#-------------------- End ----------------------------------------------------------------

#-----------------------------------------------------------------------------------------
# Note
# compute        peratom all stress/atom NULL
# compute        p all reduce sum c_peratom[1] c_peratom[2] c_peratom[3]
# variable       press equal -(c_p[1]+c_p[2]+c_p[3])/(3*vol)
# # pxx = -c_p[1]/vol, pyy = -c_p[2]/vol, pzz = -c_p[3]/vol
# thermo_style   custom step temp etotal press v_press
# metal unit: press = bar = 0.1 MPa, length = Angstrom = 1e-10 m
#-----------------------------------------------------------------------------------------