# 3.6.3. Input file for simulation of ratcheting test on pure copper of box size [30 65 30] previously equilibrated
# Ratcheting simulations of pure Cu at R= -0.2 at 300 K for 10 cycles [1st phase]

#-------------------- Initialization -----------------------------------------------------
clear
echo both
units metal
boundary p p p
atom_style atomic

#-------------------- Read structure file ------------------------------------------------
#take sample created at 300 K
read_data EQUILIBRATED_CRYSTAL_file.txt # reads the data file containing the atom positions of the equilibrated crystal in the specified file

#-------------------- Force field --------------------------------------------------------
pair_style eam/alloy
pair_coeff * * Cu_zhou04.eam.alloy Cu

#-------------------- Settings -----------------------------------------------------------
timestep 0.002 # 2 [fs] = 2e-15 [s]

# mobile zone
region 1 block 0 30  0 10 0 30 units box # defines a geometric region of space around the specified xyz coordinates around the specified xyz coordinates
region 2 block 0 30 55 65 0 30 units box

group lower region 1 # identifies a collection of atoms in region1 as a group named ‘lower’
group upper region 2 

group boundary union lower upper    # group ‘boundary’ refers to the union of ‘upper’ and ‘lower’ groups
group mobile subtract all boundary  # group ‘mobile’ identifies all atoms not present in group ‘boundary’

compute 2 mobile temp # computes temperature of ‘mobile’ group

thermo 100
thermo_style custom step temp yloyhietotal press pyy c_2

#---------- output file settings ------------------------
dump 2 all atom 1000 Cu_fatigue_LOOP_300k_2,1.dump_test.lammpstrj # dumps a snapshot of all atom quantities every 1000 timesteps to the specified file
dump_modify 2 scale no
#--------------------------------------------------------
dump 3 mobile atom 1000 Cu_fatigue_mobile_LOOP_300K.dump_test.lammpstrj # dumps a snapshot of atom quantities in group ‘mobile’ every 1000 timesteps to the specified file
dump_modify 3 scale no
#--------------------------------------------------------
log logCu_fatigue_3d_LOOP_300k_2_1_test.data

# initializing velocities
velocity mobile create 300.0 873847 rot yes mom yes dist gaussian

#-------------------- Run the simulation -------------------------------------------------
fix 2 boundary setforce 0.0 0.0 0.0 # sets each component of force on each atom in group ‘boundary’ as 0,0,0 
fix 3 mobile nve # Performs constant NVE integration to update position and velocity for atoms in the group ‘mobile’ each timestep.
fix 4 mobile temp/rescale 100 300 300 0.05 1.0 # Resets the temp of atoms in‘mobile’ group to 300K by rescaling velocities after every 100 timesteps

#-------------------- Start loop1 -----------------------------------------
# loop is given below for the fix 5
label loop1 # used for looping over a section of the input script

#number of cycles=10
variable d loop 10 # number of cycles=10. When the "d" variable has been incremented for the tenth time, it will cause the next jump command to be skipped.

#-------------------- Start loopstart ----------------------
label loopstart

# number of iterations in each cycle=10000*4=40000
#  For the index style, one or more strings are 
#  specified. Initially, the 1st string is assigned to the 
#  variable. Each time a next command is used with 
#  the variable name, the next string is assigned.
variable a loop 4

variable s index 0 -145000 0 29000
variable e index   -145000 0 29000 0

fix 5 mobile press/berendsen y $s $e 100 dilate all
# Resets the pressure of ‘mobile’ by using a Berendsen barostat.
# Pressure varied from value of ‘s’ to value of ‘e’ in y-direction.

run 10000 # Each variation from value in ‘s’ to ‘e’ takes place in 10000 iterations

#log log.$s-$e
# ‘next’ is used with variables defined by the ‘variable’ command. It 
#  assigns the next value to the variable from the list of values defined for 
#  that variable by the variable command.
next s
next e
next a

jump in.Cu_fatigue_loop_Dan.txt loopstart # jumps to the label ‘loopstart’ where execution begins again with incremented value of ‘a’
#-------------------- End loopstart -----------------------

next d

jump in.Cu_fatigue_loop_Dan.txt loop1
#-------------------- End loop1 -------------------------------------------
#-------------------- End ----------------------------------------------------------------