SystemLabel      ssy_andrew_dimer_c_2
NumberOfAtoms    78
NumberOfSpecies  6
%block ChemicalSpeciesLabel
    1    6  C
    2   11  Na
    3   16  S
    4    7  N
    5    8  O
    6    1  H
%endblock ChemicalSpeciesLabel
LatticeConstant 1.0 Ang
%block LatticeParameters
  35.000000  24.000000  24.000000  90.000000  90.000000  90.000000
%endblock LatticeParameters
AtomicCoordinatesFormat NotScaledCartesianAng
%block AtomicCoordinatesAndAtomicSpecies
   25.71619444    7.87890534    9.82162027   2       1  Na
   25.96080215   15.04916520   11.66884850   2       2  Na
    9.10811053    8.41361693    9.36132837   2       3  Na
    9.30786306   15.51148285   11.67145829   2       4  Na
   11.07258410    8.18627558    8.39818071   5       5  O
    9.84781519   10.36955410    8.64321009   5       6  O
   10.80008458    9.22569179   10.66006955   5       7  O
   11.05730727    9.54439060    9.15412933   3       8  S
   17.56308345   14.67222121    8.80967490   5       9  O
   16.46370030   14.01972140    8.78655711   1      10  C
   15.17709651   15.80183157    8.72381133   6      11  H
   15.15235269   14.70866627    8.74370690   1      12  C
   13.00057676   14.53993283    8.78393724   6      13  H
   13.95669737   14.00710196    8.76210191   1      14  C
   13.90856399   12.53357768    8.80132895   1      15  C
   11.71212452   12.41889610    8.89883728   6      16  H
   12.64469988   11.84939519    8.86264836   1      17  C
   12.63847604   10.43719138    8.91777543   1      18  C
   13.78742423    8.57324254    8.92612437   6      19  H
   13.84006708    9.66347077    8.89485902   1      20  C
   16.01154330    9.75950299    8.84068509   6      21  H
   15.08280278   10.33331401    8.84315031   1      22  C
   15.14486895   11.77010288    8.81455796   1      23  C
   16.44623414   12.50612889    8.81591446   1      24  C
   17.56144350   11.74149201    8.86440119   4      25  N
   18.77700665   13.38506134    8.84215440   6      26  H
   18.76897735   12.33977076    8.86677752   4      27  N
   21.09502681    8.30226373    9.20479602   6      28  H
   21.10698921    9.39172772    9.13064683   1      29  C
   18.93574674    9.62282342    9.02998552   6      30  H
   19.90269376   10.12723883    9.02622698   1      31  C
   19.95722340   11.55885857    8.93205278   1      32  C
   21.24734886   13.33595578    8.86500321   6      33  H
   21.21587798   12.24415625    8.92490004   1      34  C
   23.38560206   12.02778060    9.07869687   6      35  H
   22.42479589   11.50839351    9.03910564   1      36  C
   22.34876974   10.09193184    9.14458988   1      37  C
   23.74202961    7.69695660    8.85801874   5      38  O
   25.12333625    9.79969770    8.85226835   5      39  O
   23.86735335    9.12451607    9.46057201   3      40  S
   24.11982159    8.95432934   10.98996415   5      41  O
   11.27613127   15.65333502   12.62618675   5      42  O
    9.93747914   13.53535078   12.42799436   5      43  O
   10.96689313   14.57666640   10.38926411   5      44  O
   11.19337329   14.27959096   11.90376567   3      45  S
   17.37677275    8.77800333   12.40498788   5      46  O
   16.31807171    9.49544524   12.39620737   1      47  C
   14.92515258    7.79392988   12.40409477   6      48  H
   14.96650926    8.88638139   12.39485363   1      49  C
   12.83009572    9.18405933   12.30171158   6      50  H
   13.81574569    9.65846236   12.35113348   1      51  C
   13.85813185   11.13193628   12.31884747   1      52  C
   11.67502309   11.37704969   12.17636585   6      53  H
   12.63928602   11.89030169   12.23028487   1      54  C
   12.71788993   13.30078077   12.17532394   1      55  C
   13.97599112   15.09236039   12.19325560   6      56  H
   13.96291712   14.00125821   12.22540531   1      57  C
   16.12255127   13.77537307   12.33504840   6      58  H
   15.16190177   13.25811228   12.30794182   1      59  C
   15.13791686   11.82021200   12.33801833   1      60  C
   16.39235167   11.00706473   12.37473398   1      61  C
   17.55303506   11.70199430   12.37175327   4      62  N
   18.66772789    9.98893809   12.42904413   6      63  H
   18.72217200   11.03321981   12.41260856   4      64  N
   21.29156147   14.92995878   12.17573608   6      65  H
   21.23789150   13.84145778   12.24661716   1      66  C
   19.05457688   13.73898391   12.27574005   6      67  H
   19.98910446   13.17799006   12.30798977   1      68  C
   19.95559106   11.74496129   12.39641846   1      69  C
   21.13627765    9.89603727   12.50685760   6      70  H
   21.17087927   10.98777238   12.44739313   1      71  C
   23.35285459   11.07560252   12.36925750   6      72  H
   22.42415598   11.65120138   12.37741746   1      73  C
   22.43647778   13.06972422   12.27121819   1      74  C
   23.99351749   15.36482674   12.61182087   5      75  O
   25.21733060   13.16869848   12.61673051   5      76  O
   24.02281726   13.93777814   11.99615466   3      77  S
   24.30924911   14.10525466   10.47226311   5      78  O
%endblock AtomicCoordinatesAndAtomicSpecies
PAO.SplitNorm         0.15
PAO.SplitNormH        0.5
PAO.EnergyShift  0.001 Ry
PAO.BasisSize  TZP
%block PAO.Basis                                   # Define Basis set
C     2
n=2    0    3
 9.0 2.7 3.6
 1.0 1.0 1.0
n=2    1    3  P 1
 9.0 2.5 3.6
 1.0 1.0 1.0
N     2
n=2    0    3
 9.0 2.5 4.3
 1.0 1.0 1.0
n=2    1    3  P 1
 9.0 2.4 3.8
 1.0 1.0 1.0
O     2
n=2    0    3
 8.5 2.5 5.0
 1.0 1.0 1.0
n=2    1 3 P 1
 9.0 2.4 5.4
 1.0 1.0 1.0
H  1
n=1  0  3 P 1
 8.0 1.8 4.1
 1.0 1.0 1.0
S     2
n=3    0    3
 8.5 2.5 5.0
 1.0 1.0 1.0
n=3    1    3  P 1
 8.5 2.4 5.4
 1.0 1.0 1.0
%endblock PAO.Basis
MD.TypeOfRun    CG
MD.NumCGSteps   0
#MD.Variable-cell True
MD.MaxForceTol  0.01 eV/Ang
#MD.MaxStressTol  200 bar
MaxSCFIterations  500
SolutionMethod diagon
DM.NumberPulay 5
DM.MixingWeight 0.25
DM.Tolerance         1.d-4
XC.Functional VDW
XC.Authors LMKLL
LongOutput true
UseSaveData true
WriteXML false
MeshCutoff  300.0 Ry
