# Strain diffusion calculations

units metal
boundary p p p
atom_style atomic
pair_style meam

lattice hcp 3.232 orient x 1 0 0 orient y 0 1 0 orient z 0 0 1
region box block 0 10.0 0 6.0 0 6.0
create_box 2 box
create_atoms 1 box
region fcc sphere 5.0 3.0 3.0 1 side in
delete_atoms region fcc
create_atoms 2 random 50 878567 fcc
group zr type 1
50 atoms in group hydrogen
pair_coeff * * meamf ZrN Hz ZrH2.meam ZrN Hz
neighbor 2.0 bin
neigh_modify delay 10 check yes
fix 1 all nve/limit 0.1
minimize 1.00e-30 1.00e-30 100000 1000000
unfix 1
thermo 10000
reset_timestep 0
fix 1 all box/relax aniso 0.0 vmax 0.1
minimize 1.0e-30 1.0e-30 100000 1000000
unfix 1
reset_timestep 0
timestep 0.0001
velocity all create 800 12345 mom yes rot no
fix 1 all npt temp 800 800 1 iso 0 0 1 drag 0.5
# Set thermo output
thermo 10000
compute 5 hydrogen msd
compute 6 zr msd
fix 2 hydrogen ave/time 10 5 1000 c_5[1] c_5[2] c_5[3] c_5[4] file diff.txt
thermo_style custom step temp pe press vol
run 600000

#Equilibration#
reset_timestep 0
fix 1 all npt temp 800 800 1 y 0 0 1 x 0 0 1 drag 0.5
fix 2 all deform 1 z erate 0.001 units box remap x

# DEFORMATION
compute 7 zr msd
compute 8 hydrogen msd

fix 4 hydrogen ave/time 100 5 1000 c_8[1] c_8[2] c_8[3] c_8[4] file diff1.txt

# Output strain and stress info to file
# for units metal, pressure is in [bars] = 100 [kPa] = 1/10000 [GPa]
# p2, p3, p4 are in GPa
variable strain equal "(lz - v_L0)/v_L0"
variable p1 equal "v_strain"
variable p2 equal "-pxx/10000"
variable p3 equal "-pyy/10000"
variable p4 equal "-pzz/10000"
# Display thermo
thermo 10000
thermo_style custom step etotal ke temp pe press vol v_strain v_p2 v_p3 v_p4
timestep 0.0001
run 40000

# Diffuision calculation on strain
reset_timestep 0
timestep 0.0001
velocity all create 800 12345 mom yes rot no
fix 1 all nvt temp 800 800 100.0
# Set thermo output
thermo 10000
compute 10 hydrogen msd com yes
compute 11 zr msd
fix 3 hydrogen ave/time 10 5 1000 c_10[1] c_10[2] c_10[3] c_10[4] file diff2.txt
thermo_style custom step temp pe press vol
run 5000000
