# https://shareok.org/handle/11244/52763
# Appendix C: LAMMPS thermal conductivity code example

# Green-Kubo method via compute heat/flux and fix ave/correlate
# LAMMPS script
# Tim Burt 9/28/2017

# settings

#variable name equal X
variable rho equal 0.6
variable t equal 7.5
variable rc equal 5.0

variable p equal 400 # correlation length of J output (make sure heat flux ACF
dissipates to zero within this window)
variable s equal 10 # sample interval
variable d equal $p*$s # dump interval

variable equil_timesteps equal 2500000
variable thermo_timesteps equal 50000000

# convert from LAMMPS real units to SI

variable kB equal 1.3806504e-23 # [J/K] Boltzmann
variable kCal2J equal 4186.0/6.02214e23
variable A2m equal 1.0e-10
variable fs2s equal 1.0e-15
variable convert equal ${kCal2J}*${kCal2J}/${fs2s}/${A2m}
variable dt equal 0.01
variable V equal 1.0

units real

log dummy5.log

# setup problem

atom_style angle # bonds angles only
bond_style harmonic
angle_style harmonic
dimension 3
atom_modify sort 1000 2.0
read_data dummy10.lammps
group 1 molecule 1
group 2 molecule 2
#group 3 molecule 3

velocity all create $t ${random} mom yes rot yes dist uniform units box loop all

neighbor 2.0 bin
neigh_modify delay 0 every 1

pair_style none
#pair_style lj/cut ${rc}
#pair_coeff * * 1E-4 1.52

fix 1 all momentum 1 linear 1 1 1 angular

# energy minimize structure

min_style cg
dump m1 all movie 100 simulation.m4v type type zoom 2.5 adiam 0.2 size
1280 720
#dump m0 all image 1000 pic.*.png type type zoom 4 size 1280 720
minimize 1.0e-4 1.0e-6 1000 10000

# 1st equilibration run

fix 2 all nvt temp $t $t ${dt}
thermo 100
dump positions all xyz 100 step1_nvt.xyz
run_style verlet
timestep ${dt}

run ${equil_timesteps}

velocity all scale $t

unfix 2

# thermal conductivity calculation

reset_timestep 0

compute myKE 2 ke/atom
compute myPE 2 pe/atom
compute myStress 2 stress/atom NULL virial
compute flux 2 heat/flux myKE myPE myStress
variable Jx equal c_flux[1]/$V
variable Jy equal c_flux[2]/$V
variable Jz equal c_flux[3]/$V

fix 3 all nve
fix JJ 2 ave/correlate $s $p $d &
    c_flux[1] c_flux[2] c_flux[3] type auto &
    file dummy5.heatflux ave running

#variable scale equal $s*dt/$t/$t/$V
variable scale equal ${convert}/${kB}/$t/$t/$V*$s*${dt}
#variable scale equal (${convert})/(${kB}*$V*$s*dt)
variable k11 equal trap(f_JJ[3])*${scale}
variable k22 equal trap(f_JJ[4])*${scale}
variable k33 equal trap(f_JJ[5])*${scale}

thermo $d
thermo_style custom step temp v_Jx v_Jy v_Jz v_k11 v_k22 v_k33

run ${thermo_timesteps}

variable k equal (v_k11+v_k22+v_k33)/3.0
variable ndens equal count(all)/$V
print "average conductivity: $k[W/mK] @ $t K, ${ndens} /A^3"
print "$k" file dummy5.k screen yes