# 4.1.1 Sample preparation
# This program is for obtaining 3d-crystal lattice

#-------------------- Initialization -----------------------------------------------------
echo both      # echoes each input script command to both log file and screen
units metal    # determines units of all quantities used in the input file
dimension 3
boundary p p p # periodic boundary condition

#-------------------- Atom & Lattice description ----------------------------------------
atom_style atomic

region box block 0 50 0 100 0 5 units box # defines a geometric region of space
create_box 2 box # creates a simulation box in the specified region

lattice fcc 3.61 # lattice type and lattice parameter 

region cu block 0 50 0 100 0 5 units box # creates copper atoms in the simulation box

create_atoms 1 region cu units box

set region cu type/fraction 2 0.5 123456 # set Cu 50%, randomly.

region vo cylinder z 25 50 5 0 5 units box # void formation
group void region vo
delete_atoms group void

#-------------------- Force field --------------------------------------------------------
pair_style eam/alloy
pair_coeff * * al-cu-set.eam.alloy Al Cu # specifies the potential file used

#-------------------- Energy Minimization ------------------------------------------------
# 0 [K], structure optimization
#minimize 3e-7 3e-8 10000 10000

#-------------------- Settings -----------------------------------------------------------
reset_timestep 0

timestep 0.002 # 2 [fs], sets the timestep for subsequent simulations

thermo 10 # computes and prints thermodynamic data after every 10 timesteps
thermo_style custom step temp vol press etotal

#---------- output file settings -------------------
#dump 1 all atom 1AlCu_crystal_melt_3d_s_dump_new.lammpstrj # dumps a snapshot of atom quantities every 100 timesteps to the specified file
#dump_modify 1 scale no # modifies parameters of previously defined dump command.
# A value of scale ‘no’ means atom coordinates are written in absolute distance units
#---------------------------------------------------
dump            d1 all cfg 100 cfg/run.*.cfg mass type xs ys zs id type vx vy vz fx fy fz
dump_modify     d1 element Al Cu
#---------------------------------------------------

# calculates the radial distribution function (RDF) and output file
compute myRDF all rdf 10
fix 11 all ave/time 10 1 10 c_myRDF[*] file cu_melt_new.rdf mode vector

velocity all create 50 873847 rot yes mom yes dist gaussian

#-------------------- Run the simulation -------------------------------------------------
fix 1 all npt temp 50 50 0.01 iso 0.0 0.0 0.2 # fixing the temperature and pressure of the system

run 1000 # number of iterations of the simulation

unfix 1 

#-------------------- Output data file ---------------------------------------------------
write_data AlCu_void.txt

#-------------------- End ----------------------------------------------------------------