# 4.1.1 Sample preparation
# This program is for obtaining 3d-crystal lattice
#-----------------------------------------------------------------------------------------
# LAMMPS 64-bit 22Dec2022-MSMPI
clear
#-------------------- Environment Settings -----------------------------------------------
variable  Tdesird equal  300.0 # Desired Temperature [K]

variable   Nsteps equal   1000 # Number of simulation cycles
variable DumpFreq equal    100 # For print out

variable    dt_ps equal  0.002 # 0.002 [ps] = 2 [fs]

#-------------------- Initialization -----------------------------------------------------
echo both      # echoes each input script command to both log file and screen
units metal    # determines units of all quantities used in the input file
dimension 3
boundary p p p # periodic boundary condition

#-------------------- Atom & Lattice description ----------------------------------------
atom_style atomic

# defines a geometric region of space
region box block 0 50 0 100 0 5 units box

# creates a simulation box in the specified region
create_box 2 box # set 2 types (Al and Cu)

# lattice type and lattice parameter 
lattice fcc 3.61

# creates copper atoms in the simulation box
region cu block 0 50 0 100 0 5 units box

create_atoms 1 region cu units box

# set Cu 50%, randomly.
set region cu type/fraction 2 0.5 123456

# void formation (r = 15 Angstrom) (cylinder dim c1 c2 radius lo hi)
region vo cylinder z 25 50 10 INF INF units box
group void region vo
delete_atoms group void

#-------------------- Force field --------------------------------------------------------
pair_style eam/alloy
pair_coeff * * al-cu-set.eam.alloy Al Cu # specifies the potential file used

#-------------------- Energy Minimization ------------------------------------------------
# 0 [K], structure optimization
#minimize 1e-6 1e-6 10000 10000

#-------------------- Settings -----------------------------------------------------------
reset_timestep 0

# sets the timestep for subsequent simulations
timestep ${dt_ps}

thermo ${DumpFreq} # computes and prints thermodynamic data after every 100 timesteps
thermo_style custom step temp vol press etotal

#---------- output file settings -------------------
dump            d1 all cfg ${DumpFreq} cfg/run.*.cfg mass type xs ys zs id type vx vy vz fx fy fz
dump_modify     d1 element Al Cu
#---------------------------------------------------

# calculates the radial distribution function (RDF) and output file
compute myRDF all rdf 100
fix 11 all ave/time 100 1 100 c_myRDF[*] file data.rdf mode vector

velocity all create ${Tdesird} 873847 rot yes mom yes dist gaussian

#-------------------- Run the simulation -------------------------------------------------

# fixing the temperature and pressure of the system
fix 1 all npt temp ${Tdesird} ${Tdesird} $(100*dt) iso 0.0 0.0 $(1000*dt)

# number of iterations of the simulation
run ${Nsteps}

unfix 1 

#-------------------- Output data file ---------------------------------------------------
write_data AlCu_void.txt

#-------------------- End ----------------------------------------------------------------
