#------------------------------------------------------------------------------------------
# APPENDIX A
# Typical LAMMPS input file to predict growth of carbon nanotubes:
#------------------------------------------------------------------------------------------
# LAMMPS 64-bit 22Dec2022-MSMPI
#------------------------------------------------------------------------------------------

# 3-d Carbon Nanotube Growth

dimension 3 
boundary p p p 
units metal 

atom_style atomic 
newton on 

read_data INPUT_LMP_13.5.dat 

# Hybrid Potentials 

pair_style hybrid lj/cut 6.0 eam/fs airebo 3.0 
pair_coeff * * airebo CH.airebo NULL C C NULL 
#pair_coeff * * eam/fs Fe_mm.eam.fs Fe NULL NULL NULL 
pair_coeff * * eam/fs Fe_2.eam.fs Fe NULL NULL NULL 
#pair_coeff 3 3 lj/cut 0.0024 3.4 # Fe-Fe
#
pair_coeff 1 2 lj/cut 0.02495 3.7 # Fe-C(CNT)
pair_coeff 1 3 lj/cut 0.02495 3.7 # Fe-C
pair_coeff 4 4 lj/cut 0.0103  3.4 # Ar-Ar
pair_coeff 1 4 lj/cut 0.0516  3.7 # Fe-Ar
pair_coeff 2 4 lj/cut 0.00497 3.4 #  C-Ar
pair_coeff 3 4 lj/cut 0.00497 3.4 #  C-Ar
#
#pair_coeff 1 2 lj/cut 0.00688 3.57 # Ni-C(CNt)
#pair_coeff 1 3 lj/cut 0.00688 3.57 # Ni-C
#pair_coeff 1 4 lj/cut 0.1426  3.57 # Ni-Ar

# define groups 

group fe  type 1 # Fe
group cnt type 2 # C of CNT
group c   type 3 # C
group ar  type 4 # Ar

# initial velocities 

compute mobile_ar ar temp # Ar
compute mobile_fe fe temp # Fe
compute mobile_c   c temp # C

# 950 K
velocity  c create 950.0 483800 temp mobile_c  # C
velocity fe create 950.0 483800 temp mobile_fe # Fe
velocity ar create 950.0 483800 temp mobile_ar # Ar

fix 1 all nve 
fix 5 fe temp/rescale 100 950.0 950.0 1.0 1.0 
fix 6 ar temp/rescale 100 950.0 950.0 1.0 1.0 
fix 7  c temp/rescale 100 950.0 950.0 1.0 1.0 
#fix_modify 2 temp mobile 

# static nanotube and metal 

fix 20 cnt recenter INIT INIT INIT units box 

# Run 

compute en all pe/atom 

timestep 0.000005 # 0.005 [fs]

thermo 1000 
thermo_style custom step atoms temp pe ke etotal evdwl 
#thermo_modify temp mobile 
thermo_modify lost ignore 

dump 1 all custom 1000 dump.position.* type tag x y z c_en 
dump 2 all xyz 10000 dump.xyz.* 

run 100000 

unfix 20 

fix 30 cnt recenter INIT INIT INIT units box 

undump 1 
undump 2 

dump 3 all custom 10000 dump.position.* type tag x y z c_en 
dump 4 all xyz 10000 dump.xyz.* 

timestep 0.00002 # 0.02 [fs]

run 200000 

unfix 30 

run 1700000 

#------------------------------------------------------------------------------------------