# Input file for obtaining equilibrated 3D-crystal lattice of Un-notched sample using LAMMPS:
# This program is for obtaining 3d-crystal lattice
# Un-Notched: 50 x 100 x 50, 21952 atoms

#-------------------- Initialization -----------------------------------------------------
clear 
echo both        # echoes each input script command to both log file and screen
units metal      # determines units of all quantities used in the input file 
dimension 3
boundary p p p   # periodic boundary condition

#-------------------- Atom & Lattice description ----------------------------------------
atom_style atomic 

# method 1 (easy method) (Deprecated: This method does not work properly for ternary systems or higher.)
#----------------------------------------------------------------------
#region box block 0 50 0 100 0 50 units box # defines a geometric region of space
#create_box 4 box # creates a simulation box in the specified region
#
#lattice fcc 3.61 # lattice type and lattice parameter
#
#region cu block 0 50 0 100 0 50 units box
#create_atoms 2 region cu units box # creates copper atoms in the simulation box
#
# creating composition by using set command for Zr0.58-Cu0.22-Fe0.08-Al0.12 alloy 
#set region cu type/fraction 1 0.58 12393 # set Zr 58.0%, randomly
#set region cu type/fraction 3 0.08 12393 # set Fe  8.0%, randomly
#set region cu type/fraction 4 0.12 12393 # set Al 12.0%, randomly
#----------------------------------------------------------------------

# method 2 (layer type)
#----------------------------------------------------------------------
lattice fcc 3.61
region new_region block 0 50 0 100 0 50 units box 
create_box 4 new_region # set 4 types (4 elements)

# Zr (type 1) only, 25%
region zrzr block 0 50  0 25  0 50 units box
lattice fcc 3.61 orient x 1 0 0 orient y 0 1 0 orient z 0 0 1 
create_atoms 1 region zrzr

# Zr (type 1) main
region zrcu block 0 50 25 50  0 50 units box 
lattice fcc 3.61 orient x 1 0 0 orient y 0 1 0 orient z 0 0 1 
create_atoms 1 region zrcu

# Zr (type 1) main
region zrfe block 0 50 50 75  0 50 units box 
lattice fcc 3.61 orient x 1 0 0 orient y 0 1 0 orient z 0 0 1 
create_atoms 1 region zrfe

# Zr (type 1) main
region zral block 0 50 75 100 0 50 units box 
lattice fcc 3.61 orient x 1 0 0 orient y 0 1 0 orient z 0 0 1 
create_atoms 1 region zral

# creating composition by using set command for Zr0.58-Cu0.22-Fe0.08-Al0.12 alloy 
set region zrcu type/fraction 2 $(0.22*4) 12393 # set Cu 22.0%, randomly
set region zrfe type/fraction 3 $(0.08*4) 12393 # set Fe  8.0%, randomly
set region zral type/fraction 4 $(0.12*4) 12393 # set Al 12.0%, randomly

#group gzrzr region zrzr
#group gzrcu region zrcu
#group gzrfe region zrfe
#group gzral region zral
#----------------------------------------------------------------------

#-------------------- Force field --------------------------------------------------------
pair_style eam/alloy
pair_coeff * * ZrAlCuFeCoTi_Zhou04.eam.alloy Zr Cu Fe Al

#-------------------- Monte Carlo swaps (method 2 case at 1300 K) ------------------------
fix mc_zrcu all atom/swap 1 1 12345 1300 ke no types 1 2
fix mc_zrfe all atom/swap 1 1 12345 1300 ke no types 1 3
fix mc_zral all atom/swap 1 1 12345 1300 ke no types 1 4
run 5000
unfix mc_zrcu
unfix mc_zrfe
unfix mc_zral

replicate 1 1 1 # Extend to 1x1x1 cell

#-------------------- Energy Minimization ------------------------------------------------
# 0 [K], structure optimization
#minimize 1.0e-7 1.0e-8 1000 1000

#-------------------- Settings -----------------------------------------------------------
reset_timestep 0

timestep 0.002 # 2 [fs], sets the timestep for subsequent simulations

thermo 100 # computes and prints thermodynamic 
thermo_style custom step temp vol press etotal # specifies content of thermodynamic data to be printed in screen

#---------- output file settings ---------- 
#dump 1 all atom 10 Cu_crystal_melt_3d_s_dump_new.lammpstrj # dumps a snapshot of atom quantities every 10 time steps to the specified file
#dump_modify 1 scale no # modifies parameters of previously defined dump command.
## A value of scale no means atom coordinates are written in absolute distance units. 
#---------------------------------------------------
dump            d1 all cfg 10 cfg/run.*.cfg mass type xs ys zs id type vx vy vz fx fy fz
dump_modify     d1 element Zr Cu Fe Al
#---------------------------------------------------
#log logCu_crystal_melt_3d_s_new.data # closes the current log file, opens a new log file, and begins logging information to it 

# calculates the radial distribution function (RDF) and output file
compute myRDF all rdf 100
fix 11 all ave/time 1 1 100 c_myRDF[*] file data.rdf mode vector

velocity all create 300 873847 rot yes mom yes dist gaussian # sets the velocity of a group of atoms

#-------------------- Run the simulation -------------------------------------------------
fix 1 all npt temp 100 100 0.1 iso 0 0 0.1 # temp and pressure conserved
run 1000 # program is run for 1000 iterations
unfix 1  # deletes the previously defined fix 1

#--------------------------------------------------------------------------------
# Since random numbers are used for arrangement, the composition ratio is #
# slightly different from the specified ratio. Under the conditions calculated this time, 
# the composition ratio is as follows. Also keep in mind that this value will change 
# if you change the random number seed.
#--------------------------------------------------------------------------------
group zr type 1
group cu type 2
group fe type 3
group al type 4
#----------------------------
variable  nzr equal count(zr)
variable  ncu equal count(cu)
variable  nfe equal count(fe)
variable  nal equal count(al)
#----------------------------
variable ntot equal ${nzr}+${ncu}+${nfe}+${nal}
#----------------------------
variable nnzr equal ${nzr}/${ntot}
variable nncu equal ${ncu}/${ntot}
variable nnfe equal ${nfe}/${ntot}
variable nnal equal ${nal}/${ntot}
#-----------------------------
variable snnzr format nnzr %05.3f
variable snncu format nncu %05.3f
variable snnfe format nnfe %05.3f
variable snnal format nnal %05.3f
#----------------------------
variable pnzr equal ${nzr}/${ntot}*100
variable pncu equal ${ncu}/${ntot}*100
variable pnfe equal ${nfe}/${ntot}*100
variable pnal equal ${nal}/${ntot}*100
#-----------------------------
variable spnzr format pnzr %04.1f
variable spncu format pncu %04.1f
variable spnfe format pnfe %04.1f
variable spnal format pnal %04.1f
#--------------------------------------------------------------------------------
print "Zr: ${snnzr}, Cu: ${snncu}, Fe: ${snnfe}, Al: ${snnal} [ratio]"
print "Zr: ${spnzr}, Cu: ${spncu}, Fe: ${spnfe}, Al: ${spnal} [%]"
#--------------------------------------------------------------------------------

#-------------------- Output data file ---------------------------------------------------
write_data Test.dat

#-------------------- End ----------------------------------------------------------------