call the MEAM parameter files using the following commands in LAMMPS input files:

pair_style meam
pair_coeff * * library.NAlTi N Al Ti meam.NAlTi N Al Ti


