call the MEAM parameter files using the following commands in LAMMPS input files:

pair_style meam
pair_coeff * * library.meam Ti Al N TiAlN.meam Ti Al N


