call the MEAM parameter files using the following commands in LAMMPS input files:

pair_style meam
pair_coeff * * library.TiAlN Ti Al N meam.TiAlN Ti Al N


