Cu4
1.0
        2.5606188774         0.0000000000         0.0000000000
        1.2803094387         2.2175609972         0.0000000000
        1.2803094387         0.7391869991         2.0907365585
   Cu
    1
Direct
     0.000000000         0.000000000         0.000000000
