SystemLabel      ssy_dimer_c1_m
NumberOfAtoms    78
NumberOfSpecies  6
%block ChemicalSpeciesLabel
    1    6  C
    2   16  S
    3   11  Na
    4    7  N
    5    8  O
    6    1  H
%endblock ChemicalSpeciesLabel
LatticeConstant 1.0 Ang
%block LatticeParameters
  35.000000  24.000000  24.000000  90.000000  90.000000  90.000000
%endblock LatticeParameters
AtomicCoordinatesFormat NotScaledCartesianAng
%block AtomicCoordinatesAndAtomicSpecies
   11.97156763   14.86841152   12.23113622   5       1  O
   12.36649603   16.76412780   13.82834898   5       2  O
   11.55602410   14.54759345   14.68303822   5       3  O
   12.49667178   15.22453471   13.65293016   2       4  S
   20.70604814   14.20117379   13.63623237   5       5  O
   19.46950844   14.51489189   13.74925714   1       6  C
   19.82341448   16.68246103   13.65155436   6       7  H
   19.03485961   15.93048136   13.73672989   1       8  C
   17.40160079   17.33134271   13.78019973   6       9  H
   17.69640215   16.27722122   13.80507305   1      10  C
   16.62412944   15.27195496   13.87971726   1      11  C
   14.97811974   16.73707952   13.79491009   6      12  H
   15.24741521   15.67938431   13.85131772   1      13  C
   14.23755172   14.69242226   13.86387117   1      14  C
   13.72820893   12.55689009   13.95761471   6      15  H
   14.53466730   13.29497095   13.94476229   1      16  C
   16.13708723   11.82882680   14.02856003   6      17  H
   15.88930742   12.89082319   13.98444803   1      18  C
   16.95660127   13.85720946   13.93000877   1      19  C
   18.39622635   13.45896180   13.89146635   1      20  C
   18.65549326   12.12690930   13.94570486   4      21  N
   20.66334999   12.46707705   13.81597807   6      22  H
   19.93665543   11.71975841   13.90904630   4      23  N
   18.90710836    7.15975447   13.86896182   6      24  H
   19.65263094    7.95711312   13.89175929   1      25  C
   18.20981954    9.60248520   13.87449161   6      26  H
   19.26255841    9.31803351   13.89299351   1      27  C
   20.27266592   10.33687645   13.91430728   1      28  C
   22.42339012   10.77837278   13.89680224   6      29  H
   21.66350554    9.99171318   13.91274150   1      30  C
   23.11345399    8.35230452   13.85901370   6      31  H
   22.05663610    8.62790588   13.89988605   1      32  C
   21.04116898    7.63079633   13.90300091   1      33  C
   20.54053843    5.01300746   13.09341230   5      34  O
   22.95245847    5.64784289   13.43701093   5      35  O
   21.51061778    5.86141232   13.96320517   2      36  S
   21.45182434    5.29142094   15.40798581   5      37  O
   25.37333129    9.23106720   12.33009079   5      38  O
   24.99756499    9.58916292   10.86370299   2      39  S
   26.15024971   10.46400347   10.29390207   5      40  O
   24.94078989    8.27155555   10.05019913   5      41  O
   23.40815070   10.48491660   10.76102429   1      42  C
   23.40249343   11.88065205   11.04447702   1      43  C
   24.33545552   12.39506077   11.28310566   6      44  H
   22.17208118   12.58066010   11.00611360   1      45  C
   22.12778806   13.64480136   11.25377627   6      46  H
   20.96620225   11.87723149   10.67306870   1      47  C
   20.98854692   10.47178447   10.38936861   1      48  C
   20.05974806    9.95735479   10.13941628   6      49  H
   22.22002576    9.77047054   10.43671356   1      50  C
   22.26769528    8.70020091   10.22480503   6      51  H
   19.76401285   12.63300047   10.64115038   4      52  N
   19.76113556   13.67864173   10.67133647   6      53  H
   18.56210535   12.02550897   10.57703099   4      54  N
   17.45086006   12.79847147   10.52705752   1      55  C
   16.14113766   12.08138351   10.56313800   1      56  C
   16.05916769   10.65250981   10.70465609   1      57  C
   16.98075654   10.06829243   10.74228813   6      58  H
   14.80561974   10.00671910   10.80764920   1      59  C
   14.73189545    8.92210709   10.90746072   6      60  H
   13.61650461   10.80029231   10.77515236   1      61  C
   13.64450326   12.20431229   10.62663787   1      62  C
   12.72086599   12.78909662   10.63169204   6      63  H
   14.91640207   12.86108189   10.51310835   1      64  C
   14.97955269   14.32860047   10.40009419   1      65  C
   14.02921390   14.87205512   10.38407682   6      66  H
   16.18217294   15.01469606   10.37110272   1      67  C
   16.22323445   16.10621124   10.31617256   6      68  H
   17.48082886   14.31199294   10.48038724   1      69  C
   18.58162682   14.95979069   10.54670062   5      70  O
   12.00573070    9.96414671   11.00399061   2      71  S
   11.60885032    9.88078612   12.50540616   5      72  O
   10.86770424   10.71281738   10.26002671   5      73  O
   12.06817688    8.50993243   10.45813241   5      74  O
   22.05307866    3.67655148   14.01700383   3      75  Na
   10.04413237    8.89602899   11.27722260   3      76  Na
   10.35301889   15.93100599   13.46945880   3      77  Na
   26.98892967    8.52524777   10.90408418   3      78  Na
%endblock AtomicCoordinatesAndAtomicSpecies
XC.Functional  VDW
XC.Authors  LMKLL
PAO.BasisSize  TZP
%block PAO.Basis                                   # Define Basis set
C     2
n=2    0    3
 9.0 2.7 3.6
 1.0 1.0 1.0
n=2    1    3  P 1
 9.0 2.5 3.6
 1.0 1.0 1.0
N     2
n=2    0    3
 9.0 2.5 4.3
 1.0 1.0 1.0
n=2    1    3  P 1
 9.0 2.4 3.8
 1.0 1.0 1.0
O     2
n=2    0    3
 8.5 2.5 5.0
 1.0 1.0 1.0
n=2    1 3 P 1
 9.0 2.4 5.4
 1.0 1.0 1.0
H  1
n=1  0  3 P 1
 8.0 1.8 4.1
 1.0 1.0 1.0
S     2
n=3    0    3
 8.5 2.5 5.0
 1.0 1.0 1.0
n=3    1    3  P 1
 8.5 2.4 5.4
 1.0 1.0 1.0
%endblock PAO.Basis
PAO.SplitNorm  0.15
PAO.EnergyShift  0.001 Ry
DM.NumberPulay  5
DM.MixingWeight  0.25
SolutionMethod  diagon
MD.TypeOfRun  CG
MD.NumCGSteps  0
MD.MaxForceTol  0.01 eV/Ang
MeshCutoff  300.0 Ry
MaxSCFIterations  500
UseSaveData  true
LongOutput  true
PAO.SplitNormH        0.5
DM.Tolerance         1.d-4
WriteXML false
