SystemLabel      sunset_yellow_dim4_new
NumberOfAtoms    78
NumberOfSpecies  6
%block ChemicalSpeciesLabel
    1    6  C
    2   16  S
    3   11  Na
    4    7  N
    5    8  O
    6    1  H
%endblock ChemicalSpeciesLabel
LatticeConstant 1.0 Ang
%block LatticeParameters
  35.000000  24.000000  24.000000  90.000000  90.000000  90.000000
%endblock LatticeParameters
AtomicCoordinatesFormat NotScaledCartesianAng
%block AtomicCoordinatesAndAtomicSpecies
   10.77743112   10.63707722   14.47900696   5       1  O
   11.89096399    9.69508380   16.51248192   5       2  O
   11.88096237    8.36929001   14.38948625   5       3  O
   11.99414688    9.80578210   14.96308831   2       4  S
   18.58015436   14.67048374   13.79466670   5       5  O
   17.47166838   14.04190718   13.88349937   1       6  C
   16.23745301   15.86078035   13.86010397   6       7  H
   16.18174503   14.77115006   13.92766434   1       8  C
   14.03722716   14.66639707   14.08778112   6       9  H
   14.97593535   14.10294555   14.05171073   1      10  C
   14.89216774   12.63570668   14.14645157   1      11  C
   12.70650068   12.58575119   14.42796518   6      12  H
   13.62312897   11.99576713   14.35119955   1      13  C
   13.57418302   10.59005293   14.47438663   1      14  C
   14.65193422    8.68867408   14.40992311   6      15  H
   14.74054102    9.77503423   14.34479536   1      16  C
   16.89633806    9.79554430   14.04797958   6      17  H
   15.99245132   10.40057154   14.13854507   1      18  C
   16.10194815   11.83341634   14.07214353   1      19  C
   17.41988549   12.53013874   13.95804836   1      20  C
   18.52432929   11.74462317   13.99189042   4      21  N
   19.73941585   13.37907469   13.84216641   6      22  H
   19.73518549   12.33420525   13.91864836   4      23  N
   22.10912577    8.38736523   14.71235292   6      24  H
   22.11107711    9.46439336   14.53104150   1      25  C
   19.94426683    9.63339671   14.28013357   6      26  H
   20.90067099   10.15736244   14.28851195   1      27  C
   20.92857439   11.57790938   14.08441161   1      28  C
   22.18265404   13.36859110   13.90001897   6      29  H
   22.17367167   12.28836811   14.07293493   1      30  C
   24.34636902   12.11298459   14.33918573   6      31  H
   23.38658121   11.59338677   14.31693019   1      32  C
   23.33681958   10.19328892   14.55953075   1      33  C
   25.19603400    8.12902261   14.10403911   5      34  O
   26.08318368   10.29188172   15.03510010   5      35  O
   24.87255963    9.31969318   15.04259063   2      36  S
   24.73809187    8.74728954   16.48242701   5      37  O
   26.20939807   10.08602320   10.00174077   5      38  O
   24.93386191    9.48771638    9.35413906   2      39  S
   25.10799333    9.60311855    7.81111359   5      40  O
   24.85320640    7.97871325    9.70125958   5      41  O
   23.42419128   10.36233736    9.90489878   1      42  C
   23.47875591   11.77072743   10.10215754   1      43  C
   24.43511083   12.29489177   10.04583348   6      44  H
   22.27268242   12.46993556   10.35660303   1      45  C
   22.28120323   13.55550967   10.49133566   6      46  H
   21.02830038   11.75627716   10.39923296   1      47  C
   20.99846805   10.33002055   10.25586416   1      48  C
   20.04488344    9.80346272   10.31324631   6      49  H
   22.20511475    9.63112256   10.00340772   1      50  C
   22.21337283    8.54760746    9.87112801   6      51  H
   19.84230912   12.52453771   10.55149015   4      52  N
   19.85780419   13.57326429   10.57808455   6      53  H
   18.62278280   11.95170818   10.47507977   4      54  N
   17.53829084   12.76818136   10.44918342   1      55  C
   16.20476718   12.10447367   10.32102044   1      56  C
   16.05603493   10.67384188   10.31373674   1      57  C
   16.93702194   10.04812756   10.46967300   6      58  H
   14.79527471   10.07411849   10.08062408   1      59  C
   14.67631903    8.98897871   10.05697032   6      60  H
   13.65909381   10.91380763    9.86763728   1      61  C
   13.74471147   12.32267791    9.93270373   1      62  C
   12.85033666   12.93558180    9.79368375   6      63  H
   15.02251450   12.93633811   10.16076483   1      64  C
   15.14747316   14.40361432   10.18797338   1      65  C
   14.22883770   14.99145937   10.08786473   6      66  H
   16.36751246   15.04258474   10.32421073   1      67  C
   16.45432618   16.13216475   10.33811061   6      68  H
   17.63291697   14.28024567   10.44765048   1      69  C
   18.75650244   14.88107598   10.53096614   5      70  O
   12.06616955   10.15625372    9.36872831   2      71  S
   11.98872442    8.67399203    9.81836272   5      72  O
   10.86460466   10.92702407    9.97451589   5      73  O
   11.89653893   10.17793634    7.82151811   5      74  O
   26.74582172    8.26126253   15.70144937   3      75  Na
   10.12937681    9.21747792    8.70935803   3      76  Na
   10.07530458    8.83508860   15.62474504   3      77  Na
   26.76449111    8.40686829    8.61171394   3      78  Na
%endblock AtomicCoordinatesAndAtomicSpecies
PAO.SplitNorm         0.15
PAO.SplitNormH        0.5
PAO.EnergyShift  0.001 Ry
PAO.BasisSize    TZP
%block PAO.Basis                                   # Define Basis set
C     2
n=2    0    3
 9.0 2.7 3.6
 1.0 1.0 1.0
n=2    1    3  P 1
 9.0 2.5 3.6
 1.0 1.0 1.0
N     2
n=2    0    3
 9.0 2.5 4.3
 1.0 1.0 1.0
n=2    1    3  P 1
 9.0 2.4 3.8
 1.0 1.0 1.0
O     2
n=2    0    3
 8.5 2.5 5.0
 1.0 1.0 1.0
n=2    1 3 P 1
 9.0 2.4 5.4
 1.0 1.0 1.0
H  1
n=1  0  3 P 1
 8.0 1.8 4.1
 1.0 1.0 1.0
S     2
n=3    0    3
 8.5 2.5 5.0
 1.0 1.0 1.0
n=3    1    3  P 1
 8.5 2.4 5.4
 1.0 1.0 1.0
%endblock PAO.Basis
MD.TypeOfRun    CG
MD.NumCGSteps   0
#MD.Variable-cell True
MD.MaxForceTol  0.01 eV/Ang
#MD.MaxStressTol  200 bar
MaxSCFIterations  500
SolutionMethod diagon
DM.NumberPulay 5
DM.MixingWeight 0.25
DM.Tolerance         1.d-4
XC.Functional VDW
XC.Authors LMKLL
LongOutput true
UseSaveData true
WriteXML false
MeshCutoff  300.0 Ry
