# 4.2.2Uniaxial Testing of the specimen

Units metal
Echo both
atom_style atomic
#dimension 2
Boundary p p p

read_data AlCu_void.txt
# reads the data file containing the atom positions of the equilibrated crystal in the specified file

timestep 0.002

compute myrdf all rdf 100

fix a all ave/time 10 2 100 c_myrdf[*] file W_rdf_nnnd mode vector

compute 1 all stress/atom
compute 2 all reduce sum c_1[1] c_1[2] c_1[3]

variable stress equal ((c_2[2])/(3*vol))
variable tmp equal ly
variable lo equal ${tmp}
variable strain equal (ly-v_lo)/v_lo 
variable p equal -pyy/10000

thermo 100
thermo_style custom step temp vol etotal pyy lx ly lz v_stress v_strain

pair_style eam/alloy
pair_coeff * * al-cu-set.eam.alloy Al Cu

dump 1 all custom 100 NVT_defo_nnndump_Cu-void.lammpstrj id type x y z

log NVTlogdef_nnn_cu_void.data

velocity all create 400 873847 rot yes mom yes dist gaussian 

# tensile deformation
fix 2 all deform 1 x volume y erate 0.1 z volume units box # strain rate of 0.1 sec-1 is applied in y direction

# temperature controller

fix 1 all nvt temp 400 400 0.1 # fixing the temp of system

fix def all print 1 "${strain} ${p}" file Cu_nnn_100.def1NVT.txt

run 1000 # Number of iterations of the simulation
