# 4.2.1.4 Tensile deformation of quenched specimen
# In order to perform a tensile test MD code is written and executed in LAMMPS. The 
# following ‘in.file’ consists of set of commands that will perform tensile test. 

#-------------------- Initialization -----------------------------------------------------
echo both
units metal
boundary p p p

#-------------------- Read structure file ------------------------------------------------
atom_style atomic

read_data cu49zr49al2.txt

#-------------------- Force field --------------------------------------------------------
pair_style eam/alloy
pair_coeff * * CuZrAl_Zhou04.eam.alloy Cu Zr Al

#-------------------- Energy Minimization ------------------------------------------------
# 0 [K], structure optimization
# minimize 1.0e-5 1.0e-10 10000 100000

#-------------------- Settings -----------------------------------------------------------
reset_timestep 0

timestep 0.001 # 1 [fs]

#---------- output file settings -------------------------
#dump 1 all atom 10000 dump.2al_300k_test.lammpstrj
#---------------------------------------------------------
dump            d1 all cfg 10000 cfg/run.*.cfg mass type xs ys zs c_csym c_peratom id type vx vy vz fx fy fz
dump_modify     d1 element Cu Zr Al
#---------------------------------------------------------
log log2al_300k_test.dat

# initial velocities
velocity all create 298 482748 rot yes mom yes dist gaussian

#-------------------- Run the simulation -------------------------------------------------

fix 1 all deform 1 y erate 0.01 # Uniaxial tensile deformation
fix 2 all npt temp 300.0 300.0 10.0 x 0 0 10.0 z 0 0 10.0 dilate all
fix 3 all temp/rescale 10 300 300 0.05 1.0

# calculates the radial distribution function (RDF) and output file
compute 11 all rdf 100
fix 4 all ave/time 100 1 100 c_11 file rdf_2al_300k_test.rdf mode vector

compute 1 all stress/atom 
compute 2 all temp
dump 2 all custom 10000 dump.stress_atom_2al-300k_test type x y z c_1[1] c_1[2] c_1[3] c_1[4] c_1[5] c_1[6]

compute 3 all reduce sum c_1[2]
variable     stress equal c_3/(3*250000)
variable stress_GPa equal v_stress/10000

thermo 100
thermo_style custom step temp press vol etotal c_2 v_stress v_stress_GPa

run 40000

#-------------------- End ----------------------------------------------------------------