##########################################################
#------------Variables and cell--------------------------#
##########################################################

clear
#processors * * * grid numa

# eV,atomic charge,angstroms,ps,kelvin,bars,g/mol
units metal

dimension 3
boundary p p p
atom_style charge

# Memo (structure file)
# Li2SnO3 (unit cell): Li:16, Sn:8, O:24, Total:48 atoms
# 5x5x4 supercell of Li2SnO3 (4800 ions)
# For the Li2O Schottky scheme, 10% (Li:240 ions) and 5% (O:120 ions) of Li and O ions, respectively.
#  (5x1x1 suprcell and  Li2O Schottky defect (Li:12 , O:6))
# The divalent and trivalent doping concentrations were 6.25%.
#  (MT2+ at Li site [TM:1 in unit cell]), (MT3+ at Sn site [TM:1 in 2x1x1 supecell])
#
read_data Nidope-Li2SnO3_defectLi2O.data
#
#replicate 5 5 4 # 5x5x4 supercell of Li2SnO3 (4800 ions) from unit cell

group Li type 1
group Sn type 2
group O  type 3
group Ni type 4

mass 1   6.9410 # Li
mass 2 118.71   # Sn
mass 3  15.9994 # O
mass 4  58.6934 # Ni, Ti:47.867, V:50.9415, Cr:51.9961, Mn:54.938049, Fe:55.847, Co:58.9332

# Note: MT3+ at Sn site, #MT2+ at Li site.
set type 1 charge  1.0 # Li 1+
set type 2 charge  4.0 # Sn 4+
set type 3 charge -2.0 # O  2-
set type 4 charge  3.0 # Ni 3+

variable T1 equal 500 # Temperature [K]
variable Timer equal step*dt

log ${T1}.lammps

#########################################################
#---------- Pair styles and electrostatics--------------#
#########################################################

pair_style buck/coul/long 10
pair_coeff 1 1     0.0    1.0       0.0   # Li-Li (cation-cation)
pair_coeff 1 2     0.0    1.0       0.0   # Li-Sn (cation-cation)
pair_coeff 1 3   632.1018 0.2906    0.0   # Li-O  !(cation-anion)
pair_coeff 1 4     0.0    1.0       0.0   # Li-Ni (cation-cation)
pair_coeff 2 2     0.0    1.0       0.0   # Sn-Sn (cation-cation)
pair_coeff 2 3  1414.32   0.3479   13.66  # Sn-O  !(cation-anion)
pair_coeff 2 4     0.0    1.0       0.0   # Sn-Ni (cation-cation)
pair_coeff 3 3  2764.30   0.14900  27.627 #  O-O    (anion-anion)
pair_coeff 3 4  1018.36   0.3299    0.000 # Ni-O  !(cation-anion)
pair_coeff 4 4     0.0    1.0       0.0   # Ni-Ni (cation-cation)

# Memo (trivalent cations, TM3+) (MT3+ on Sn site)
#pair_coeff 3 4  1715.7    0.3069    0.000 # Ti-O, [G1]
#pair_coeff 3 4  1790.2    0.3061    0.000 #  V-O, [G1]
#pair_coeff 3 4  1734.1    0.3010    0.000 # Cr-O, [G1]
#pair_coeff 3 4  1257.9    0.3214    0.000 # Mn-O, [G1]
#pair_coeff 3 4  1102.4    0.3299    0.000 # Fe-O, [G1]
#pair_coeff 3 4  1329.82   0.3087    0.000 # Co-O, [LMO1]
#pair_coeff 3 4  1195.00   0.3087    0.000 # Co-O, other ref. [23], [L23]
#pair_coeff 3 4  1279.23   0.2932    0.000 # Ni-O, other ref. [P9]
##
#pair_coeff 3 4  1625.72   0.3019    0.000 # Ga-O, [LMO1]
#pair_coeff 3 4  1725.20   0.28971   0.000 # Al-O, [LMO1], [LCO1], [LZO1], [LRO1], [LSO1]
#pair_coeff 3 4  1114.9    0.3118    0.000 # Al-O, [G1]
#pair_coeff 3 4  1575.85   0.3211    0.000 # Sc-O, [LMO1], [LCO1], [LZO1], [LRO1], [LSO1]
#pair_coeff 3 4  1299.4    0.3312    0.000 # Sc-O, [G1]
#pair_coeff 3 4  1495.65   0.3327    4.33  # In-O, [LMO1], [LCO1], [LZO1], [LRO1], [LSO1]
#pair_coeff 3 4  1766.40   0.33849  19.43  #  Y-O, [LMO1], [LCO1], [LZO1], [LRO1], [LSO1]
#pair_coeff 3 4  1345.1    0.3491    0.000 #  Y-O, [G1]
#pair_coeff 3 4  1885.75   0.3399   20.34  # Gd-O, [LMO1], [LCO1], [LZO1], [LRO1], [LSO1]
#pair_coeff 3 4  2088.79   0.3460   23.25  # La-O, [LMO1], [LCO1], [LZO1], [LRO1], [LSO1]
#pair_coeff 3 4  1439.7    0.3651    0.000 # La-O, [G1]

# Memo (divalent cations, TM2+) (MT2+ on Li site)
#pair_coeff 3 4   715.8    0.3464    0.000 # Mn-O, [G1]
#pair_coeff 3 4   694.1    0.3399    0.000 # Fe-O, [G1]
#pair_coeff 3 4   696.3    0.3362    0.000 # Co-O, [G1]
#pair_coeff 3 4   683.5    0.3332    0.000 # Ni-O, [G1]
#pair_coeff 3 4   499.6    0.3595    0.000 # Zn-O, [G1]
##
#pair_coeff 3 4   821.6    0.3242    0.000 # Mg-O, [G1]
#pair_coeff 3 4  1228.9    0.3372    0.000 # Ca-O, [G1]
#pair_coeff 3 4  1400.0    0.3500    0.000 # Sr-O, [G1]
#pair_coeff 3 4   931.7    0.3494    0.000 # Ba-O, [G1]

# Memo (tetravalent cations, Xx4+) (Xx4+ on Sn site)
#pair_coeff 3 4  1283.91   0.32052  10.66  # Si-O, [LMO1], [LZO1]
#pair_coeff 3 4  1497.3996 0.325646 16.00  # Ge-O, [LMO1], [LZO1]
#pair_coeff 3 4  1035.5    0.3464    0.000 # Ge-O, [G1]
#pair_coeff 3 4  1414.32   0.3479   13.66  # Sn-O, [LMO1], [LZO1]
#pair_coeff 3 4   938.7    0.3813    0.000 # Sn-O, [G1]
#pair_coeff 3 4  5111.7    0.2625    0.000 # Ti-O, [LMO1], [LZO1]
#pair_coeff 3 4   754.2    0.3879    0.000 # Ti-O, [G1]
#pair_coeff 3 4   985.869  0.3760    0.000 # Zr-O, [LMO1]
#pair_coeff 3 4  3087.826  0.2642    0.000 # Mn-O, [LMO1]
#pair_coeff 3 4  1986.83   0.3511   20.40  # Ce-O, [LMO1], [LZO1]
#pair_coeff 3 4  1013.6    0.3949    0.000 # Ce-O, [G1]
#pair_coeff 3 4 13733.40   0.2259    0.49  # Ru-O, [LRO1]

#[G1] G. V. Lewis et al., J. Phys. C: Solid State Phys., 18 (1985) 1149-1161. 
#  Values of A in parentheses are appropriate for cations in a tetrahedral anion environment.
#[LMO1] N. Kuganathan et al., Energies 2019, 12(7), 1329. (Li2MnO3)
#[LCO1] A. Kordatos et al., Sci Rep 8, 6754 (2018). (Li2CuO2)
#[LZO1] K. A. Rex et al., Energies 2021, 14(13), 3963. (Li2ZnO3)
#[LRO1] N. Kuganathan et al., Sci Rep 9, 550 (2019). 
#  pair_coeff 3 3 12420.50 0.2215 29.07 # O-O, Y(e)=-2.96, k(eV A^-2) 31.00
#[LSO1] N. Kuganathan et al., Sci Rep 8, 12621 (2018).

kspace_style pppm 1e-05

########################################################
# -------------- Run Minimization ---------------------#
########################################################

reset_timestep 0 

timestep 0.5 # 0.5 [ps]

thermo 10
thermo_style custom step enthalpy fmax lx ly lz vol press 

min_style cg 
minimize 1e-25 1e-25 5000 10000 # 0 [K], structure optimization

########################################################
# -------------- Relax Cell ---------------------------#
########################################################

reset_timestep 0

timestep 0.5 # 0.5 [ps]

thermo 1 
thermo_style custom step enthalpy fmax lx ly lz vol press 

fix 1 all box/relax aniso 1.0 vmax 0.003

min_style cg 
minimize 1e-25 1e-25 5000 10000 # 0 [K], structure optimization

unfix 1

########################################################
# ------------- Run NPT T1-----------------------------#
########################################################

reset_timestep 0

timestep 0.002 # 2 [fs]

thermo 1000
thermo_style custom step v_Timer cpu temp etotal fmax lx ly lz vol press

dump            d1 all cfg 1000 cfg/run.npt.*.cfg mass type xs ys zs id type q vx vy vz fx fy fz
dump_modify     d1 element Li Sn O Ni

velocity all create ${T1} 4928 rot yes dist gaussian

fix 2 all npt temp ${T1} ${T1} 0.01 aniso 1.0 1.0 0.1

run 5000 # 10 [ps]

unfix 2
undump d1

########################################################
# ------------- MSD -----------------------------------#
########################################################

reset_timestep 0

timestep 0.002 # 2 [fs]

compute mymsdLi Li msd com yes
compute mymsdNi Ni msd com yes

variable msdxLi   equal "c_mymsdLi[1]"
variable msdyLi   equal "c_mymsdLi[2]"
variable msdzLi   equal "c_mymsdLi[3]"
variable msdtotLi equal "c_mymsdLi[4]"

variable msdxNi   equal "c_mymsdNi[1]"
variable msdyNi   equal "c_mymsdNi[2]"
variable msdzNi   equal "c_mymsdNi[3]"
variable msdtotNi equal "c_mymsdNi[4]"

fix msdT2 Ni ave/time 1 1 2500 v_msdxNi v_msdyNi v_msdzNi v_msdtotNi file msdNi${T1}
fix msdT1 Li ave/time 1 1 2500 v_msdxLi v_msdyLi v_msdzLi v_msdtotLi file NimsdLithium${T1}

fix 3 all nvt temp ${T1} ${T1} 0.01

thermo 5000
thermo_style custom step v_Timer cpu temp etotal fmax lx ly lz vol press v_msdtotLi v_msdtotNi

#dump dynamics all xyz/xyz 2500 Ni3-Li2SnO3nvt_${T1}.xyz
#dump_modify dynamics every 5000 element Li Sn O Ni first yes
#---------------------------------------------------
dump            d2 all cfg 2500 cfg/run.nvt.*.cfg mass type xs ys zs id type q vx vy vz fx fy fz
dump_modify     d2 element Li Sn O Ni
#---------------------------------------------------

run 1000000 # 2 [ns]

unfix 3
unfix msdT1
unfix msdT2

########################################################
# ------------- End -----------------------------------#
########################################################
#------------------------------------------------------#
# Memo
# We can derive the Li and Na diffusion coefficients using 
# the MSD data and then convert them to ionic conductivities using 
# the Nernst-Einstein equation.
# MSD = 6*D*t
# where t is the simulation time, D is diffusion coeffcients.
#------------------------------------------------------#
# Memo
# monoclinic Li2SnO3 (C2/c space gropu)
# a = 5.303 A, b = 9.257 A, c = 10.061, beta = 100.852
#------------------------------------------------------#