#------------------------------------------------------------------------------------------
# Appendix-B: Code for simulating crumpled graphene
#------------------------------------------------------------------------------------------
# LAMMPS 64-bit 22Dec2022-MSMPI
#------------------------------------------------------------------------------------------
clear
echo both
#-------------------- Initialization ------------------------------------------------------
units metal
dimension 3
boundary p p p
atom_style atomic

variable    Temp equal 298.0 # Temperature [K]

variable xyscale equal 0.25 # Used to change the size of a structure

variable xybs equal 150*${xyscale} # original 150
variable xygs equal 125*${xyscale} # original 125

#-------------------- create structure file -----------------------------------------------
lattice diamond 3.567
region box block -${xybs} ${xybs} -${xybs} ${xybs} -10 10 units lattice
create_box 1 box

lattice custom 2.4595 a1 1 0 0 a2 0 1.73203 0 &
  basis 0 0 0 basis 0.5 0.16666666666666666 0 &
  basis 0.5 0.5 0 basis 0 0.6666666666666666 0
region graphene block -${xygs} ${xygs} -${xygs} ${xygs} 0 0.1 units lattice
create_atoms 1 region graphene 

mass * 12.011 # C

#-------------------- Force field --------------------------------------------------------
pair_style airebo/morse 3.0
pair_coeff * * CH.airebo-m C

#-------------------- Settings -----------------------------------------------------------
timestep 0.002 # 2 [fs]

compute 3 all pe/atom
compute 4 all stress/atom NULL pair

velocity all create ${Temp} 4928459 dist gaussian

#-------------------- Run the simulation (NPT) -------------------------------------------
thermo 10
#thermo_style custom step pe ke etotal temp lx ly lz press atoms
thermo_style custom step temp ke pe press pxx pyy vol

#dump 1 all custom 25 dump.${name}.* id x y z vx vy vz c_3 c_4[1] c_4[2] c_4[3]
dump d1 all cfg 25 cfg/dump.npt_*.cfg mass type xs ys zs fx fy fz
dump_modify d1 element C

fix bp all balance 250 1 shift z 10 1

fix 1 all npt temp ${Temp} ${Temp} $(2*100*dt) x 0.0 0.0 0.5 y 0.0 0.0 0.5

run 10000

unfix 1
undump d1

#-------------------- Run the simulation (NVE) -------------------------------------------
reset_timestep 0

group graphene region graphene

variable ymn equal ylo+4
variable ymx equal yhi-4
variable xmn equal xlo+4
variable xmx equal xhi-4

region middle block ${xmn} ${xmx} ${ymn} ${ymx} -5 5 units box
group middle region middle
group edge subtract graphene middle

variable r0 equal 212
variable rate equal 0.75
variable radius equal "v_r0 - (step-10000)*dt*v_rate"

change_box all boundary s s s

thermo 10
thermo_style custom step temp ke pe press pxx pyy vol v_radius f_constrain[1] f_constrain[2] 

dump d2 all cfg 25 cfg/dump.nve_*.cfg mass type xs ys zs fx fy fz
dump_modify d2 element C

fix constrain all indent 1 sphere 0 0 0 v_radius side in units box

fix nve all nve

run 100000

#------------------------------------------------------------------------------------------
