# B.1. Input Code for DEM Simulator LIGGGHTS

echo both
#log ../DEM/log.liggghts
#thermo_log ../DEM/post/thermo.txt
log ./log.liggghts
thermo_log ./thermo.txt

atom_style granular
atom_modify map array sort 0 0
communicate single vel yes

boundary f
newton off

units si

region reg block 0 10 -1 1 0 0.1 units box
create_box 1 reg

neighbor 0.003 bin
neigh_modify delay 0 binsize 0.01


# Material properties required for granular pair styles
fix m1 all property/global youngsModulus peratomtype 5.e6
fix m2 all property/global poissonsRatio peratomtype 0.45
fix m3 all property/global coefficientRestitution peratomtypepair 1 0.3
fix m4 all property/global coefficientFriction peratomtypepair 1 0.5
#fix m5 all property/global characteristicVelocity scalar 2.0

# pair style
pair_style gran model hertz tangential history # hertz without cohesion
pair_coeff * *

# timestep, gravity
timestep 0.00001
fix gravi all gravity 9.8 vector 0.0 -1.0 0.0

# walls
fix xwalls1 all wall/gran model hertz tangential history primitive type 1 xplane 0
fix xwalls2 all wall/gran model hertz tangential history primitive type 1 xplane 10
fix ywalls1 all wall/gran model hertz tangential history primitive type 1 yplane -1.0
fix ywalls2 all wall/gran model hertz tangential history primitive type 1 yplane 1.0
fix zwalls1 all wall/gran model hertz tangential history primitive type 1 zplane 0.05
fix zwalls2 all wall/gran model hertz tangential history primitive type 1 zplane 0.06

# create single partciles
region bc block 0 0.5 0 0.1 0.05 0.06 units box
fix pts1 all particletemplate/sphere 15485863 atom_type 1 density constant 2650 radius constant 0.005
fix pdd1 all particledistribution/discrete 15485867 1 pts1 1.0
fix ins all insert/rate/region seed 32452843 distributiontemplate pdd1 vel constant 1 0 0 nparticles 1500000 particlerate 15000 insert_every 100 overlapcheck yes region bc

# cfd coupling
fix cfd all couple/cfd couple_every 100 mpi
fix cfd2 all couple/cfd/force

# apply nve integration to all particles that are inserted as single particles
fix integr all nve/sphere

# screen output
compute rke all erotate/sphere
thermo_style custom step atoms ke c_rke vol
thermo 1000
thermo_modify lost ignore norm no
compute_modify thermo_temp dynamic yes

# insert the first particles so that dump is not empty
run 0
#dump dmp all custom 10000 ../DEM/post/dump.liggghts_run id type x y z ix iy iz vx vy vz fx fy fz omegax omegay omegaz radius
dump dmp all custom 10000 ./dump.liggghts_run id type x y z ix iy iz vx vy vz fx fy fz omegax omegay omegaz radius

run 0 upto
