SystemLabel      ssy_dimer_c2prime_p
NumberOfAtoms    78
NumberOfSpecies  6
%block ChemicalSpeciesLabel
    1    6  C
    2   16  S
    3   11  Na
    4    7  N
    5    8  O
    6    1  H
%endblock ChemicalSpeciesLabel
LatticeConstant 1.0 Ang
%block LatticeParameters
  35.000000  24.000000  24.000000  90.000000  90.000000  90.000000
%endblock LatticeParameters
AtomicCoordinatesFormat NotScaledCartesianAng
%block AtomicCoordinatesAndAtomicSpecies
   24.71807019   13.72410516   12.71823002   5       1  O
   23.92568342   16.07670615   12.31735227   5       2  O
   24.12698295   14.47523456   10.39959212   5       3  O
   23.72869048   14.59172993   11.90072331   2       4  S
   15.51284838   13.64374049   12.32776742   5       5  O
   16.75694205   13.94393281   12.32648655   1       6  C
   16.41621873   16.11364468   12.23836158   6       7  H
   17.20251864   15.35479329   12.26234823   1       8  C
   18.84624223   16.73697721   12.11786839   6       9  H
   18.54450151   15.68749618   12.19447933   1      10  C
   19.61092277   14.67249334   12.21858814   1      11  C
   21.26269649   16.11783106   12.02211498   6      12  H
   20.98876705   15.06482105   12.12342400   1      13  C
   21.99355385   14.07231492   12.16729456   1      14  C
   22.49500667   11.94707886   12.38047872   6      15  H
   21.69030096   12.68544116   12.33536912   1      16  C
   20.07962709   11.23818070   12.53182236   6      17  H
   20.33291717   12.29401291   12.42059639   1      18  C
   19.27164900   13.26344988   12.33697031   1      19  C
   17.82806932   12.87726194   12.35204060   1      20  C
   17.55972488   11.54705019   12.33235423   4      21  N
   15.55099237   11.91253529   12.34229569   6      22  H
   16.27270819   11.15343019   12.32895808   4      23  N
   17.26100779    6.59658099   11.97352940   6      24  H
   16.52523298    7.40036221   12.03828478   1      25  C
   17.98215583    9.03171400   12.13013791   6      26  H
   16.92690746    8.75548114   12.13309732   1      27  C
   15.92642079    9.77734508   12.24120958   1      28  C
   13.77779711   10.23298356   12.30531712   6      29  H
   14.53245527    9.44313823   12.24474482   1      30  C
   13.06679766    7.83148350   12.10934177   6      31  H
   14.12815116    8.08832641   12.13777042   1      32  C
   15.13442813    7.08605296   12.04000363   1      33  C
   15.81979762    4.40989488   12.32809132   5      34  O
   13.42130943    5.00793730   12.79447038   5      35  O
   14.64308857    5.32831834   11.89283974   2      36  S
   14.26326087    4.93753505   10.43721183   5      37  O
   24.48480399    9.33104718   10.93868431   5      38  O
   23.99393601    9.30131198    9.46335682   2      39  S
   25.13932163    9.85452318    8.57621760   5      40  O
   23.76015775    7.81143043    9.08321327   5      41  O
   22.44561022   10.24719608    9.24657682   1      42  C
   22.49151196   11.66104521    9.09102127   1      43  C
   23.44139664   12.20052800    9.08939277   6      44  H
   21.26703450   12.36786847    8.97068105   1      45  C
   21.27515544   13.45763162    8.87073497   6      46  H
   20.02535929   11.65512512    9.02227585   1      47  C
   19.99899242   10.22984268    9.18166453   1      48  C
   19.04132815    9.70997506    9.22121017   6      49  H
   21.21887423    9.52249908    9.28921602   1      50  C
   21.23540820    8.43661704    9.39962937   6      51  H
   18.81800138   12.40182639    8.93846202   4      52  N
   18.79526554   13.44790495    8.92252972   6      53  H
   17.63106621   11.76787643    8.94084429   4      54  N
   16.49548676   12.50704214    8.93232612   1      55  C
   15.21394499   11.74146980    8.94048259   1      56  C
   15.17672711   10.30672708    8.82939353   1      57  C
   16.11226712    9.75837950    8.70562249   6      58  H
   13.95279715    9.60313113    8.89612898   1      59  C
   13.92324265    8.51300011    8.82655911   6      60  H
   12.74422617   10.34575961    9.07347616   1      61  C
   12.72579919   11.75646782    9.14903688   1      62  C
   11.77739097   12.28768633    9.26080116   6      63  H
   13.96689357   12.47568321    9.07173780   1      64  C
   13.98373604   13.94742758    9.12422746   1      65  C
   13.02125626   14.46167690    9.21372234   6      66  H
   15.15722022   14.67920585    9.06221823   1      67  C
   15.16027207   15.77140247    9.10254564   6      68  H
   16.47943227   14.01715746    8.97064360   1      69  C
   17.56309808   14.69545142    8.95643375   5      70  O
   11.17538259    9.43210626    9.28828458   2      71  S
   11.05428205    8.85127674   10.72712352   5      72  O
    9.95696223   10.36840252    9.05558628   5      73  O
   11.07037774    8.24669154    8.29477111   5      74  O
   25.85984540   15.28408044   11.61174183   3      75  Na
    9.21568095    8.32902549    9.50319639   3      76  Na
   14.09310560    3.15016143   11.74177636   3      77  Na
   25.85774472    8.07097469    9.74625022   3      78  Na
%endblock AtomicCoordinatesAndAtomicSpecies
XC.Functional  VDW
XC.Authors  LMKLL
PAO.BasisSize  TZP
%block PAO.Basis                                   # Define Basis set
C     2
n=2    0    3
 9.0 2.7 3.6
 1.0 1.0 1.0
n=2    1    3  P 1
 9.0 2.5 3.6
 1.0 1.0 1.0
N     2
n=2    0    3
 9.0 2.5 4.3
 1.0 1.0 1.0
n=2    1    3  P 1
 9.0 2.4 3.8
 1.0 1.0 1.0
O     2
n=2    0    3
 8.5 2.5 5.0
 1.0 1.0 1.0
n=2    1 3 P 1
 9.0 2.4 5.4
 1.0 1.0 1.0
H  1
n=1  0  3 P 1
 8.0 1.8 4.1
 1.0 1.0 1.0
S     2
n=3    0    3
 8.5 2.5 5.0
 1.0 1.0 1.0
n=3    1    3  P 1
 8.5 2.4 5.4
 1.0 1.0 1.0
%endblock PAO.Basis
PAO.SplitNorm  0.15
PAO.EnergyShift  0.001 Ry
DM.NumberPulay  5
DM.MixingWeight  0.25
SolutionMethod  diagon
MD.TypeOfRun  CG
MD.NumCGSteps  0
MD.MaxForceTol  0.01 eV/Ang
MeshCutoff  300.0 Ry
MaxSCFIterations  500
UseSaveData  true
LongOutput  true
PAO.SplitNormH        0.5
DM.Tolerance         1.d-4
WriteXML false
