# 4.2 Creation of Zn-Mg-Al-Cu glassy alloys
#  4.2.1 Creation of Zn39Mg33Al15Cu13 alloy
#(for size X=50 Angstrom, Y=100 Angstrom, Z=100 Angstrom & cooling rate 10^14 K/s)
#-----------------------------------------------------------------------------------------
# LAMMPS 64-bit 22Dec2022-MSMPI
clear
#-------------------- Environment Settings -----------------------------------------------
variable  Tdesird equal  723.0 # Desired Temperature [K]

variable Nsteps_h equal  10000 # Number of simulation cycles (heating process)
variable Nsteps_a equal  20000 # Number of simulation cycles (anneling process)
variable Nsteps_c equal  10000 # Number of simulation cycles (cooling process)

variable DumpFreq equal   1000 # For print out

variable    dt_ps equal  0.002 # 0.002 [ps] = 2 [fs]

#-------------------- Initialization -----------------------------------------------------
echo both
units metal
dimension 3
boundary p p p

#-------------------- Atom & Lattice description ----------------------------------------
atom_style atomic

# method 1 (easy method) (Deprecated: This method does not work properly for ternary systems or higher.)
#----------------------------------------------------------------------
#region box block 0 50 0 100 0 50 units box
#create_box 4 box # set 4 types (4 elements)
#
#lattice fcc 3.61
#
#region cu block 0 50 0 100 0 50 units box
#
#create_atoms 1 region cu units box
#
# creating composition by using set command for Zn39-Mg33-Al15-Cu13 alloy 
#set region cu type/fraction 2 0.25 12393 # set Mg 33%, randomly
#set region cu type/fraction 3 0.10 12393 # set Al 15%, randomly
#set region cu type/fraction 4 0.05 12393 # set Cu 13%, randomly
#----------------------------------------------------------------------

# method 2 (layer type)
#----------------------------------------------------------------------
lattice fcc 3.61
region new_region block 0 50 0 100 0 50 units box 
create_box 4 new_region # set 4 types (4 elements)

# Zn (type 1) only, 20%
region znzn block 0 50  0 20  0 50 units box
lattice fcc 3.61 orient x 1 0 0 orient y 0 1 0 orient z 0 0 1 
create_atoms 1 region znzn

# Zn (type 1)
region znal block 0 50 20 40  0 50 units box
lattice fcc 3.61 orient x 1 0 0 orient y 0 1 0 orient z 0 0 1 
create_atoms 1 region znal

# Mg (type 2) only, 20%
region mgmg block 0 50 40 60  0 50 units box 
lattice fcc 3.61 orient x 1 0 0 orient y 0 1 0 orient z 0 0 1 
create_atoms 2 region mgmg

# Mg (type 2) main
region mgcu block  0 50 60 80 0 50 units box 
lattice fcc 3.61 orient x 1 0 0 orient y 0 1 0 orient z 0 0 1 
create_atoms 2 region mgcu

# Mg (type 2) main
region mgzn block  0 50 80 100 0 50 units box 
lattice fcc 3.61 orient x 1 0 0 orient y 0 1 0 orient z 0 0 1 
create_atoms 2 region mgzn

# creating composition by using set command for Zn39-Mg33-Al15-Cu13 alloy 
set region znal  type/fraction 3 $(0.15*5) 12393 # set Al 15%, randomly
set region mgcu  type/fraction 4 $(0.13*5) 12393 # set Cu 13%, randomly
set region mgzn  type/fraction 1 $(0.14*5) 12393 # set Zn 14% (=39-20-20*(1-0.15*5)), randomly
# check: Mg = 20(at mgmg) + 20*(1-0.13*5)(at mgcu) + 20*(1-0.14*5)(at mgzn) = 33 %

#----------------------------------------------------------------------

#-------------------- Force field --------------------------------------------------------
pair_style hybrid eam/alloy eam/alloy meam
pair_coeff * * eam/alloy 1 ./POT/MgAlCu_Zhou04.eam.alloy                                  NULL Mg   Al   Cu   # Mg-Al-Cu
pair_coeff * * eam/alloy 2 ./POT/CuZn.eam.alloy                                           Zn   NULL NULL Cu   # Zn-Cu
pair_coeff * * meam        ./POT/MgAlZn.library.meam Mg Al Zn ./POT/MgAlZn.parameter.meam Zn   Mg   Al   NULL # Mg-Al-Zn
#----------------------------------------------

#-------------------- Monte Carlo swaps (method 2 case at ${Tdesird} K) ------------------------
fix mc_znmg all atom/swap 1 1 12345 ${Tdesird} ke no types 1 2
fix mc_znal all atom/swap 1 1 12345 ${Tdesird} ke no types 1 3
fix mc_zncu all atom/swap 1 1 12345 ${Tdesird} ke no types 1 4
run 4000
unfix mc_znmg
unfix mc_znal
unfix mc_zncu

fix mc_mgzn all atom/swap 1 1 12345 ${Tdesird} ke no types 2 1
fix mc_mgal all atom/swap 1 1 12345 ${Tdesird} ke no types 2 3
fix mc_mgcu all atom/swap 1 1 12345 ${Tdesird} ke no types 2 4
run 4000
unfix mc_mgzn
unfix mc_mgal
unfix mc_mgcu

replicate 1 1 1 # Extend to 1x1x1 cell

#-------------------- Energy Minimization ------------------------------------------------
# 0 [K], structure optimization
minimize 1.0e-4 1.0e-6 10000 100000

#-------------------- Settings -----------------------------------------------------------
reset_timestep 0

timestep ${dt_ps}

thermo ${DumpFreq}
thermo_style custom step temp vol press etotal

velocity all create 300.0 873847 rot yes mom yes dist gaussian

# calculates the radial distribution function (RDF) and output file
compute myRDF all rdf 1000
fix 11 all ave/time 1000 1 1000 c_myRDF[*] file CuZrAlNi.rdf mode vector

#-------------------- Run the simulation -------------------------------------------------
# Heat treatment

# heating proces
#---------------------------------------------------------
dump            d2 all cfg ${DumpFreq} cfg/run.heating.*.cfg mass type xs ys zs id type vx vy vz fx fy fz
dump_modify     d2 element Zn Mg Al Cu
#---------------------------------------------------------
fix 2 all npt temp        300 ${Tdesird} $(100*dt) iso 0.0 0.0 $(1000*dt)
run ${Nsteps_h}
unfix 2
undump d2

# anneling process
#---------------------------------------------------------
dump            d3 all cfg ${DumpFreq} cfg/run.anneling.*.cfg mass type xs ys zs id type vx vy vz fx fy fz
dump_modify     d3 element Zn Mg Al Cu
#---------------------------------------------------------
fix 3 all npt temp ${Tdesird} ${Tdesird} $(100*dt) iso 0.0 0.0 $(1000*dt)
run ${Nsteps_a}
unfix 3
undump d3

# cooling process
#---------------------------------------------------------
dump            d4 all cfg ${DumpFreq} cfg/run.cooling.*.cfg mass type xs ys zs id type vx vy vz fx fy fz
dump_modify     d4 element Zn Mg Al Cu
#---------------------------------------------------------
fix 4 all npt temp ${Tdesird}        300 $(100*dt) iso 0.0 0.0 $(1000*dt)
run ${Nsteps_c}
unfix 4
undump d4

#--------------------------------------------------------------------------------
# The calculation conditions for this time are as follows.
#--------------------------------------------------------------------------------
variable heating_rate equal "(v_Tdesird - 300) / ( v_dt_ps * v_Nsteps_h ) * 1e-2"
print "heating rate = ${heating_rate} x 10^14 [K/s]"
#--------------------------------------------------------------------------------
print "anneling time = $(v_dt_ps*v_Nsteps_a) [ps]"
#--------------------------------------------------------------------------------
variable cooling_rate equal "(v_Tdesird - 300) / ( v_dt_ps * v_Nsteps_c ) * 1e-2"
print "cooling rate = ${cooling_rate} x 10^14 [K/s]"
#--------------------------------------------------------------------------------

#--------------------------------------------------------------------------------
# Since random numbers are used for arrangement, the composition ratio is #
# slightly different from the specified ratio. Under the conditions calculated this time, 
# the composition ratio is as follows. Also keep in mind that this value will change 
# if you change the random number seed.
#--------------------------------------------------------------------------------
group zn type 1
group mg type 2
group al type 3
group cu type 4
#----------------------------
variable  nzn equal count(zn)
variable  nmg equal count(mg)
variable  nal equal count(al)
variable  ncu equal count(cu)
#----------------------------
variable ntot equal ${nzn}+${nmg}+${nal}+${ncu}
#----------------------------
variable nnzn equal ${nzn}/${ntot}
variable nnmg equal ${nmg}/${ntot}
variable nnal equal ${nal}/${ntot}
variable nncu equal ${ncu}/${ntot}
#-----------------------------
variable snnzn format nnzn %05.3f
variable snnmg format nnmg %05.3f
variable snnal format nnal %05.3f
variable snncu format nncu %05.3f
#----------------------------
variable pnzn equal ${nzn}/${ntot}*100
variable pnmg equal ${nmg}/${ntot}*100
variable pnal equal ${nal}/${ntot}*100
variable pncu equal ${ncu}/${ntot}*100
#-----------------------------
variable spnzn format pnzn %4.1f
variable spnmg format pnmg %4.1f
variable spnal format pnal %4.1f
variable spncu format pncu %4.1f
#--------------------------------------------------------------------------------
print "Zn: ${snnzn}, Mg: ${snnmg}, Al: ${snnal}, Cu: ${snncu} [ratio]"
print "Zn: ${spnzn}, Mg: ${spnmg}, Al: ${spnal}, Cu: ${spncu} [%]"
#--------------------------------------------------------------------------------

#-------------------- Output data file ---------------------------------------------------
write_data Zn39-Mg33-Al15-Cu13.data # output data for "4.2.1.4_Tensile_deformation"

#-------------------- End ----------------------------------------------------------------

#-----------------------------------------------------------------------------------------
# Temp difference = 2300 K - 300 K = 2000 K
# Total time taken for cooling = timestep x no of iterations in quenched step = (0.002 x 10000) ps
# So cooling rate = 2000 K / (0.002 x 10000) ps = 10^14 K/s for the above in.file
#-----------------------------------------------------------------------------------------