ALGO = Normal
#IWAVPR = 11
EDIFF = 1e-06
ENCUT = 520
IBRION = 2
#ICHARG = 1
ISIF = 3
ISMEAR = 1
ISPIN = 2
SYM = 0
LORBIT = 11
LREAL = Auto