ALGO = Fast
#IWAVPR = 11
EDIFF = 5e-06
ENCUT = 520
IBRION = 6
#ICHARG = 1
ISIF = 3
ISMEAR = 0
ISPIN = 2
ISYM = 0
LORBIT = 11
LREAL = Auto
LWAVE = False
#MAGMOM = 202*0.6
#NELECT = 288.0
NELM = 100
NPAR = 4
NSW = 1000
PREC = Accurate
SIGMA = 0.05