SYSTEM = Ni3Al
PREC = Accurate
ENCUT = 520 # ENMAX in POTCAR
NELM = 40 # max number of selfconsistance steps, 40 normally
NELMIN = 10 # min number of SC steps
EDIFF = 1.0e-6 # allowed error in total E
NSW = 5000 # max number of steps for IOM, # of MD steps
NBLOCK = 1 ; KBLOCK = 1000 # default =1
IBRION = 0 # -1 if NSW=1,0 ,0 for MD, 1 for newton, 2 for conj-grad
POTIM = 1.00 #
ISIF = 2 # 3=full vol relax, 2=no vol or shape change
ISMEAR = -5
SIGMA = 0.05 # default Check this one!
LPLANE = .TRUE. # good for large cells
LREAL = .TRUE. # projection in reciprocal space, good for large cells
NPAR = 4 #
RWIGS = 1 1 1 # wigner seitz radius (need a number for each atom type)
VOSKOWN = 0 # default=0, 1 different interpolation formula
ALGO = Fast #
LWAVE = .FALSE. # determines if WAVECAR is written
LCHARG = .FALSE. # determines if CHGCAR/CHG are written
MAXMIX = 30 #something to do with dielectric function, also for MD
ISYM = 0 #switch of symmetry, for MD
SMASS = 0 #
TEBEG = 2000 #temperature for MD
TEEND = 2000