SYSTEM = NiAl
PREC = Accurate
EDIFF= 5E-6
ENCUT = 520 # ENMAX in POTCAR
NELM = 40 # max number of selfconsistance steps, 40 normally
NELMIN = 4 # min number of SC steps
NSW = 5000 # max number of steps for IOM, # of MD steps
NBLOCK = 1 ; KBLOCK = 1000 # default =1
IBRION = 0 # -1 if NSW=1,0 ,0 for MD, 1 for newton, 2 for conj-grad
POTIM = 2.00 # 
ISIF = 3 # 3=full vol relax, 2=no vol or shape change
ISMEAR = 1 # default
SIGMA = 0.2 # default Check this one!
LPLANE = .TRUE. # good for large cells
LREAL = .TRUE. # projection in reciprocal space, good for large cells
NPAR = 8 # 
RWIGS = 1 1 1 # wigner seitz radius (need a number for each atom type)
VOSKOWN = 0 # default=0, 1 different interpolation formula
ALGO = Fast # 
MAXMIX = 30 #something to do with dielectric function, also for MD
ISYM = 0 #switch of symmetry, for MD
SMASS = 0 #
LSCALAPACK = .TRUE.
LWAVE = .FALSE. # determines if WAVECAR is written
LCHARG = .TRUE. # determines if CHGCAR/CHG are written
LAECHG = .TRUE. # core to AECCAR0 and val to AECCAR2
##### NPT - related #################
MDALGO=3 # Langevin dynamics
TEBEG=1500
TEEND=1500
LANGEVIN_GAMMA = 10.0 10.0 10.0 # friction coef. for atomic DoFs
LANGEVIN_GAMMA_L=10.0 # friction coef. for lattice DoFs
PMASS=10 # mass for lattice DoFs
PSTRESS =.0001 # 0.001 0.001 0 0 0 Targeted stress tensor values in Kbar