#-----------------------------------------------------------------------------------------
# 4.2 Creation of Al-Si-Mg-Cu-Fe alloys
#  Test: LAMMPS 64-bit 22Dec2022-MSMPI version
# Input file for uniaxial compressive loading of Al-Si-Mg-Cu-Fe alloys
#-----------------------------------------------------------------------------------------
clear
echo both
#-------------------- Environment Settings -----------------------------------------------
variable  Tdesird equal  273+25.0 # Desired Temperature [K]

variable  dt_ps   equal   0.001 # 1.0 [fs] (Recommend 0.1-1.0 [fs]), sets the timestep for subsequent simulations

variable Nsteps   equal   20000 # The number of calculations
variable Nout     equal     100 # output (e.g., 10 - 1000)

variable rseed    equal   12345 # random seed (Note: If you want different results, use different values.)

#-------------------- Initialization -----------------------------------------------------
units metal
dimension 3
boundary p p p

#-------------------- Atom & Lattice description ----------------------------------------
atom_style atomic

read_data data_after_step2.lammps

variable elem string "Al Si Mg Cu Fe"

#-------------------- Force field --------------------------------------------------------
pair_style meam

#----- MEAM_potential_2012_version -----
variable padress string "./../MEAM_potential_2012_version"
pair_coeff * *  ${padress}/Jelinek_2012_meamf.txt ${elem}  ${padress}/Jelinek_2012_meam.alsimgcufe ${elem}

#-----------------------------------------------------------------------------------------

#-------------------- Settings -----------------------------------------------------------
timestep ${dt_ps}

velocity all create ${Tdesird} ${rseed} mom yes rot no # sets the velocity of a group of atoms

#-------------------- Equilibration ------------------------------------------------------
# This calculation is done to eliminate residual stresses.

thermo ${Nout}
thermo_style custom step lx ly lz press pxx pyy pzz pe temp fmax fnorm

#---------- output file settings --------------------------------------
dump         d1 all cfg ${Nout} cfg/run.equil.*.cfg mass type xs ys zs id type vx vy vz fx fy fz
dump_modify  d1 element ${elem}
#----------------------------------------------------------------------

fix f1 all npt temp ${Tdesird} ${Tdesird} $(1000*dt) iso 1.0 1.0 $(1000*dt) drag 1

# Run for at least 10 [ps] (assuming 1 [fs] timestep in this case)
run 10000 # 10 [ps]

unfix f1
undump d1

#-------------------- Defromation settings -----------------------------------------------
reset_timestep 0

compute csym all centro/atom fcc
compute peratom all pe/atom 

# Store final cell length for strain calculations
variable tmp equal "lx"
variable L0 equal ${tmp}
print "Initial Length, L0: ${L0}"

variable srate equal 1.0e10
variable srate1 equal "-v_srate / 1.0e12"

# Output strain and stress info to file
# for units metal, pressure is in [bars] = 100 [kPa] = 1/10000 [GPa]
# p2, p3, p4 are in GPa
variable strain equal "(lx - v_L0)/v_L0"
variable p1 equal "v_strain"
variable p2 equal "-pxx/10000"
variable p3 equal "-pyy/10000"
variable p4 equal "-pzz/10000"
fix def1 all print ${Nout} "${p1} ${p2} ${p3} ${p4}" file AlSiMgCuFe_comp.txt screen no

thermo ${Nout}
thermo_style custom step v_strain temp v_p2 v_p3 v_p4 ke pe press

#---------- output file settings --------------------------------------
dump         d2 all cfg ${Nout} cfg/run.comp.*.cfg mass type xs ys zs c_csym c_peratom id type vx vy vz fx fy fz
dump_modify  d2 element ${elem}
#----------------------------------------------------------------------

#-------------------- Run the simulation -------------------------------------------------
fix f2 all npt temp ${Tdesird} ${Tdesird} $(1000*dt) y 1.0 1.0 $(1000*dt) z 1.0 1.0 $(1000*dt) drag 1
fix f3 all deform 1 x erate ${srate1} units box remap x

run ${Nsteps}

write_data data_after_step3.lammps

#-------------------- End ----------------------------------------------------------------
