GGA = PE
# vibrational tages
ISMEAR = 0
SIGMA = 0.05
LREAL = Auto

NCORE = 28

# MD related tags
IBRION = 0
POTIM = 0.5
MDALGO = 2
SMASS=0 # For Nose-hoover thermostat convergance
TEBEG = 300
TEEND = 300
NSW = 5000
IVDW=12
# Write tags
LWAVE  = .FALSE.
LCHARG = .FALSE.

