# A lammps command file for shrinking a medium-sized periodic cell of 
# a-BxCy 

# Initialization 

units real 
dimension 3 
boundary p p p 
atom_style full 
pair_style lj/cut 15.0 
bond_style harmonic 
angle_style harmonic 
#neigh_modify every 1 delay 0 one 100000 page 1500000 
neigh_modify every 1 delay 0 one 10000 page 150000

communicate single cutoff 20.0

pair_modify shift yes 

newton off

# Atom definition

read_data data.4.6b-c

special_bonds lj/coul 0 1 1 extra 170 

######################## 
# Initialization 
######################## 

timestep 0.0005 

# Set up output

restart 50000 restart.4.6b-c.0 restart.4.6b-c.1 

dump coords all atom 5000 dump.4.6b-c.coarse

dump_modify coords scale no 

compute bnd all property/local btype batom1 batom2
dump bonds all local 5000 dump.4.6b-c1.bond.coarse index c_bnd[1] c_bnd[2] c_bnd[3] 

compute ang all property/local atype aatom1 aatom2 aatom3 
dump angles all local 5000 dump.4.6b-c.angle.coarse index c_ang[1] c_ang[2] c_ang[3] c_ang[4] 

# Initial minimization 

#minimize 1.0e-15 1.0e-15 1000000 100000000 
minimize 1.0e-15 1.0e-15 10000 1000000 

######################## 
# Coarse run 
######################## 

# Create velocities 

velocity all create 1000.0 673646 sum yes dist gaussian

# Remove extra H2

#region all block EDGE EDGE EDGE EDGE EDGE EDGE units box 
#fix evap all evaporate 500 8 all 543439 atomtype 6 molecule yes 

# bond/create fixes 

fix B2uH7 all bond/create 500 2 7 3.0 2 iparam 1 1 jparam 1 3 prob 0.50 45715 
fix B2uH7 all bond/create 500 2 7 3.0 2 iparam 1 1 jparam 1 3 prob 0.50 45715 
fix C10uH7 all bond/create 500 10 7 2.5 5 iparam 1 9 jparam 1 5 prob 0.90 235 
fix C11uH7 all bond/create 500 11 7 3.0 5 iparam 1 10 jparam 1 5 prob 0.90 3723 
#fix H7uH7 all bond/create 500 7 7 2.0 10 iparam 1 6 jparam 1 6 prob 0.10 9853 
fix B2uB2 all bond/create 500 2 2 2.7 8 iparam 1 1 jparam 1 1 
fix B2uC10 all bond/create 500 2 10 2.7 9 iparam 1 1 jparam 1 9 
fix B2uC11 all bond/create 500 2 11 2.7 9 iparam 1 1 jparam 1 10

# bond/break fixes

fix B1nH3 all bond/break 500 2 1.225 iparam 1 1 2 jparam 3 1 7 prob 0.65 5900 
fix C9nH5 all bond/break 500 5 1.21 iparam 9 -1 10 jparam 5 1 7 prob 0.85 2398 
fix C10nH5 all bond/break 500 5 1.25 iparam 10 -1 11 jparam 5 1 7 prob 0.55 4372

# Other fixes and computes
fix squish all deform 1000 x scale 0.20 y scale 0.20 z scale 0.20 remap x 
#fix squish all deform 1000 x scale 0.25 y scale 0.25 z scale 0.25 remap x 
#fix squish all deform 10000 x scale 0.2 y scale 0.2 z scale 0.2 remap x 
#fix squish all deform 1000 x scale 0.3 y scale 0.3 z scale 0.3 remap x

fix energy all nve 
fix temperature all viscous 0.1 scale 7 300

# Run

run 1000000 
#run 150000 

######################## 
# Minimize coarse 
######################## 

#minimize 1.0e-15 1.0e-15 1000000 100000000 
minimize 1.0e-15 1.0e-15 10000 1000000

# End coarse run 
unfix squish 
undump coords 
undump bonds 
undump angles 

######################## 
# Fine run 
######################## 

# Fixes and computes

fix squish all deform 1000 x scale 0.083 y scale 0.083 z scale 0.083 remap x 
#fix squish all deform 1000 x scale 0.2 y scale 0.2 z scale 0.2 remap x

fix energy all nve

# Run

dump coords all atom 2000 dump.4.6b-c.fine 
dump_modify coords scale no 

dump bonds all local 2000 dump.4.6b-c.bond.fine index c_bnd[1] c_bnd[2] c_bnd[3] 

dump angles all local 2000 dump.4.6b-c.angle.fine index c_ang[1] c_ang[2] c_ang[3] c_ang[4]

run 200000

######################## 
# Minimize fine 
########################

#minimize 1.0e-15 1.0e-15 1000000 100000000 
minimize 1.0e-15 1.0e-15 10000 1000000

# End fine run 