# Input file for obtaining equilibrated 3D-crystal lattice of Double Square-notched sample using LAMMPS:
# This program is for obtaining 3d-crystal lattice
# Square-Notched: 50 x 100 x 50, 20720 atoms
#-----------------------------------------------------------------------------------------
# LAMMPS 64-bit 22Dec2022-MSMPI
clear
#-------------------- Initialization -----------------------------------------------------
echo both        # echoes each input script command to both log file and screen
units metal      # determines units of all quantities used in the input file 
dimension 3
boundary p p p   # periodic boundary condition

#-------------------- Atom & Lattice description ----------------------------------------
atom_style atomic 

# method 1 (easy method) (Deprecated: This method does not work properly for ternary systems or higher.)
#----------------------------------------------------------------------
region box block 0 50 0 100 0 50 units box # defines a geometric region of space
create_box 4 box # creates a simulation box in the specified region

lattice fcc 3.61 # lattice type and lattice parameter

region cu block 0 50 0 100 0 50 units box
create_atoms 1 region cu units box # creates (copper -> Zr) atoms in the simulation box

# creating composition by using set command for Zr0.65-Pd0.175-Fe0.10-Al0.075 alloy 
set region cu type/fraction 2 0.175 12393 # set Pd 17.5%, randomly
set region cu type/fraction 3 0.100 12393 # set Fe 10.0%, randomly
set region cu type/fraction 4 0.075 12393 # set Al  7.5%, randomly
#----------------------------------------------------------------------

# method 2 (layer type)
#----------------------------------------------------------------------
lattice fcc 3.61
region new_region block 0 50 0 100 0 50 units box 
create_box 4 new_region # set 4 types (4 elements)

# Zr (type 1) only, 25%
region zrzr block 0 50  0 25  0 50 units box
lattice fcc 3.61 orient x 1 0 0 orient y 0 1 0 orient z 0 0 1 
create_atoms 1 region zrzr

# Zr (type 1) main
region zrpd block 0 50 25 50  0 50 units box 
lattice fcc 3.61 orient x 1 0 0 orient y 0 1 0 orient z 0 0 1 
create_atoms 1 region zrpd

# Zr (type 1) main
region zrfe block 0 50 50 75  0 50 units box 
lattice fcc 3.61 orient x 1 0 0 orient y 0 1 0 orient z 0 0 1 
create_atoms 1 region zrfe

# Zr (type 1) main
region zral block 0 50 75 100 0 50 units box 
lattice fcc 3.61 orient x 1 0 0 orient y 0 1 0 orient z 0 0 1 
create_atoms 1 region zral

# creating composition by using set command for Zr0.65-Pd0.175-Fe0.10-Al0.075 alloy 
set region zrpd type/fraction 2 $(0.175*4) 12393 # set Pd 17.5%, randomly
set region zrfe type/fraction 3 $(0.100*4) 12393 # set Fe 10.0%, randomly
set region zral type/fraction 4 $(0.075*4) 12393 # set Al  7.5%, randomly

#group gzrzr region zrzr
#group gzrpd region zrpd
#group gzrfe region zrfe
#group gzral region zral
#----------------------------------------------------------------------

# delete area
#----------------------------------------------------------------------
region cu1 block 35 50 40 60 0 50 units box # defines a geometric region of Square-notch

group crystal region cu1
delete_atoms group crystal # creates one side square-notch in the simulation box

region cu2 block 0 15 40 60 0 50 units box
group crystal region cu2
delete_atoms group crystal # creates another side square-notch in the simulation box
#----------------------------------------------------------------------

#-------------------- Force field --------------------------------------------------------
pair_style eam/alloy
pair_coeff * * ZrAlFeCuPdAg_Zhou04.eam.alloy Zr Pd Fe Al

#-------------------- Monte Carlo swaps (method 2 case at 2300 K) ------------------------
fix mc_zrpd all atom/swap 1 1 12345 2300 ke no types 1 2
fix mc_zrfe all atom/swap 1 1 12345 2300 ke no types 1 3
fix mc_zral all atom/swap 1 1 12345 2300 ke no types 1 4
run 10000
unfix mc_zrpd
unfix mc_zrfe
unfix mc_zral

#-------------------- Energy Minimization ------------------------------------------------
# 0 [K], structure optimization
#minimize 1.0e-7 1.0e-8 1000 1000

#-------------------- Settings -----------------------------------------------------------
reset_timestep 0

timestep 0.002 # 2 [ps], sets the timestep for subsequent simulations

thermo 100 # computes and prints thermodynamic
thermo_style custom step temp vol press etotal # specifies content of thermodynamic data to be printed in screen

#---------- output file settings ---------- 
#dump 1 all atom 10 Cu_crystal_melt_3d_s_dump_new.lammpstrj # dumps a snapshot of atom quantities every 10 time steps to the specified file
#dump_modify 1 scale no # modifies parameters of previously defined dump command.
## A value of scale no means atom coordinates are written in absolute distance units. 
#---------------------------------------------------
dump            d1 all cfg 10 cfg/run.*.cfg mass type xs ys zs id type vx vy vz fx fy fz
dump_modify     d1 element Zr Pd Fe Al
#---------------------------------------------------
#log logCu_crystal_melt_3d_s_new.data # closes the current log file, opens a new log file, and begins logging information to it

# calculates the radial distribution function (RDF) and output file
compute myRDF all rdf 100
fix 11 all ave/time 1 1 100 c_myRDF[*] file data.rdf mode vector

velocity all create 300 873847 rot yes mom yes dist gaussian # sets the velocity of a group of atoms

#-------------------- Run the simulation -------------------------------------------------
fix 1 all npt temp 100 100 0.1 iso 0 0 0.1 # temp and pressure conserved
run 1000 # program is run for 1000 iterations
unfix 1  # the previously defined fix 1

#--------------------------------------------------------------------------------
# Since random numbers are used for arrangement, the composition ratio is #
# slightly different from the specified ratio. Under the conditions calculated this time, 
# the composition ratio is as follows. Also keep in mind that this value will change 
# if you change the random number seed.
#--------------------------------------------------------------------------------
group zr type 1
group pd type 2
group fe type 3
group al type 4
#----------------------------
variable  nzr equal count(zr)
variable  npd equal count(pd)
variable  nfe equal count(fe)
variable  nal equal count(al)
#----------------------------
variable ntot equal ${nzr}+${npd}+${nfe}+${nal}
#----------------------------
variable nnzr equal ${nzr}/${ntot}
variable nnpd equal ${npd}/${ntot}
variable nnfe equal ${nfe}/${ntot}
variable nnal equal ${nal}/${ntot}
#-----------------------------
variable snnzr format nnzr %05.3f
variable snnpd format nnpd %05.3f
variable snnfe format nnfe %05.3f
variable snnal format nnal %05.3f
#----------------------------
variable pnzr equal ${nzr}/${ntot}*100
variable pnpd equal ${npd}/${ntot}*100
variable pnfe equal ${nfe}/${ntot}*100
variable pnal equal ${nal}/${ntot}*100
#-----------------------------
variable spnzr format pnzr %4.1f
variable spnpd format pnpd %4.1f
variable spnfe format pnfe %4.1f
variable spnal format pnal %4.1f
#--------------------------------------------------------------------------------
print "Zr: ${snnzr}, Pd: ${snnpd}, Fe: ${snnfe}, Al: ${snnal} [ratio]"
print "Zr: ${spnzr}, Pd: ${spnpd}, Fe: ${spnfe}, Al: ${spnal} [%]"
#--------------------------------------------------------------------------------

#-------------------- Output data file ---------------------------------------------------
write_data Test.dat

#-------------------- End ----------------------------------------------------------------