#-----------------------------------------------------------------------------------------
### Created by Eric N. Hahn  ###
### ericnhahn@gmail.com ###
#-----------------------------------------------------------------------------------------
### Small changes by STUDENT
#-----------------------------------------------------------------------------------------
# LAMMPS 64-bit 22Dec2022-MSMPI
#-----------------------------------------------------------------------------------------
# NIST: https://www.ctcms.nist.gov/potentials/
#-----------------------------------------------------------------------------------------
clear
echo both
#-----------------------------------------------------------------------------------------
# 3D Silicon crack simulation using Stillinger-Weber 

variable fscale equal 0.5

variable name string ex_crack_Si_long

dimension  3
boundary s s p
units metal

atom_style atomic

neighbor 0.3 bin
neigh_modify delay 5

# create geometry

variable xlm equal 35*${fscale}
variable ylm equal 35*${fscale}
variable zlm equal 10*${fscale}

lattice  diamond 5.43
region  box block 0 ${xlm} 0 ${ylm} -${zlm} ${zlm} units lattice
create_box 5 box
create_atoms 1 box

mass  1 28.09 # Si
mass  2 28.09 # Si
mass  3 28.09 # Si
mass  4 28.09 # Si
mass  5 28.09 # Si

pair_style sw
pair_coeff * * Si.sw Si Si Si Si Si

# define groups

fix  1 all nve
run 0

variable topbound equal yhi-2
variable botbound equal ylo+2

region  1 block INF INF INF ${botbound} INF INF units box
group  lower region 1
region  2 block INF INF ${topbound} INF INF INF units box
group  upper region 2
group  boundary union lower upper
group  mobile subtract all boundary

variable quarter equal xhi/6
variable half equal xhi/2

region  leftupper block INF ${quarter} ${half} INF INF INF units box
region  leftlower block INF ${quarter} INF ${half} INF INF units box
group  leftupper region leftupper
group  leftlower region leftlower

set  group leftupper type 2
set  group leftlower type 3
set  group lower type 4
set  group upper type 5

# initial velocities
compute    new mobile temp
velocity mobile create 5 887723 temp new
velocity upper set 0.0 0.25 0.0
compute stress all stress/atom NULL

# fixes
fix  2 boundary setforce NULL 0.0 NULL 

dump 1 all custom 50 dump/dump.${name}.* id type x y z vx vy vz c_stress[1] c_stress[2] c_stress[3]
dump d1 all cfg 50 cfg/dump.${name}.*.cfg mass type xs ys zs id type vx vy vz fx fy fz
dump_modify d1 element Si Si Si Si Si

# run

timestep 0.001 # 1 [fs]

thermo 200
thermo_modify temp new

neigh_modify exclude type 2 3

run  20000

print "---------- Ende ----------"
#-----------------------------------------------------------------------------------------