# Correlations in the Motion of Atoms in Liquid Argon
# A. Rahman, Phys. Rev. 136, A405 (1964)

# 単位の指定(E:kcal/mol, time:fs, distance:Ang., mass:g/mol, P:atmospheres)
units          real
# ポテンシャル関数とcutoff距離 (# https://lammps.sandia.gov/doc/pair_lj.html)
pair_style     lj/cut 7.65
# simulation boxとポテンシャル関数の係数をAr.dataから読む
read_data      Ar.data
# 10x10x10のスーパーセルを生成, 10*10*10=1,000個のAr
replicate      10 10 10
# 熱力データを出力頻度(10ステップ毎)と出力パラメータ
thermo         10
thermo_style   custom step temp etotal press vol density
# 粒子に与える温度(初期速度)と乱数用のseed
velocity       all create 94.4 777
# NVTアンサンブルで温度は94.4K
fix            1 all nvt temp 94.4 94.4 100
# 100step毎に粒子の座標をAr.lammpstrjに記録
dump           1 all custom 1 Ar_nvt.lammpstrj id element x y z
# 原子番号でsortして元素記号を付したlammpstrjを保存
dump_modify    1 element Ar sort id
# 計算の時間刻み 1 fs
timestep       10
# 300ステップ=3ps実行して系を平衡にする
run            300

# 平衡になったら動径分布関数と平均自乗変位の計算
comm_modify    cutoff 14
compute        a all rdf 240 * * cutoff 12
fix            2 all ave/time 1 100 100 c_a[*] file Ar_nvt.gr mode vector
compute        b all msd
fix            3 all ave/time 1 1 100 c_b[*] file Ar_nvt.msd title1 "#dt=10fs"
run            3000