# Script 3

# --- Choose potential ---
pair_style meam
pair_coeff * * library.meam Fe Co PotentialFile.meam Fe Co

# --- Setup neighbor style ---
neighbor 1.0 nsq
neigh_modify once no every 1 delay 0 check yes

# --- Setup minimization style ---
min_style cg
min_modify dmax ${dmax} line quadratic

# --- Setup output ---
thermo 1
thermo_style custom step temp pe press pxx pyy pzz pxy pxz pyz lx ly lz vol
thermo_modify norm no
