# 3. LAMMPS Script for Tension Simulation
# https://scholarworks.uvm.edu/cgi/viewcontent.cgi?article=1995&context=graddis

echo both

read_restart restart.dat

#EAM
pair_style  eam/alloy
pair_coeff  * * cu_ag_ymwu.eam.alloy Cu Ag

timestep    0.005

compute     ctr all cna/atom 3.491
compute     str all stress/atom NULL
#compute     pe all pe/atom

# Equilibration from 500k to 300k under zero stress

thermo_style one
thermo      1000

dump        11 all custom 10000 coord0.xyz xs ys zs id type

fix         16 all npt temp 500 300 0.05 aniso 0.0 0.0 0.12 drag 2

run         20000

unfix       16

undump      11

# Equilibration at 300K under zero stress

thermo_style one
thermo      1000

dump        10 all custom 10000 coord0.xyz xs ys zs id type

fix         15 all npt temp 300 300 0.05 aniso 0.0 0.0 0.12 drag 2

run         20000

unfix       15

undump      10

#Deformation simulation

restart     50000 restart

reset_timestep 0

fix         5 all ave/time 100 5 1000 c_thermo_press[1] c_thermo_press[2] c_thermo_press[3] file pressure.ave
fix        25 all deform 1 x erate 0.0001
fix        35 all npt temp 300.0 300.0 0.05 y 0.0 0.0 0.12 z 0.0 0.0 0.12 drag 2

variable    a loop 20

label       repeat20

dump        45 all custom 1000 coord$a.xyz xs ys zs id type c_ctr c_str[1]

run         10000

undump      45

next        a

jump        in.tensionxx-restart2 repeat20
