# 5.1.2 Program for vertical defect
# LAMMPS 64-bit 22Dec2022-MSMPI
clear
#-------------------- Environment Settings -----------------------------------------------
# Note: es_rate/dt_ps = 0.0001 / (2e-15) = 5.0e10 [1/s]
# L(t) = L(0)*(1 + es_rate*dt*step)
# strain [%] = es_rate*dt*Nstep*100 [%] = 0.0001 * 0.002 * 6000000 * 100 = 120 [%]

#-------------------- Initialization -----------------------------------------------------
units metal # determines units of all quantities used in the program
echo both   # finds fault and displays error messages
dimension 3
boundary s p s

#-------------------- Atom & Lattice description ----------------------------------------
atom_style atomic

# creates a box of dimension 20x50x40
region box block 0 20 0 50 0 40 units box
create_box 1 box

# lattice parameter for Cu crystal
lattice fcc 3.61

# creates Cu atoms in the given box
region Cu block 0 20 0 50 0 40 units box
create_atoms 1 region Cu units box

# creates vertical defect
region dislocation block 19 20 15 35 24.4 25.4 units box
group 5 region dislocation # creates a vertical defect
delete_atoms group 5 

#-------------------- Force field --------------------------------------------------------
pair_style eam/alloy                  # interaction between two atoms Embedded Atomic Method, calculates pair wise interaction
pair_coeff * * Cu_zhou04.eam.alloy Cu # energy between two atoms is taken from the given potential file

#-------------------- Energy Minimization ------------------------------------------------
# 0 [K], structure optimization
minimize 1.0e-9 1.0e-6 1000 1000 # brings atoms to minimum energy state

#-------------------- Settings -----------------------------------------------------------
reset_timestep 0

timestep 0.002 # 2 [fs], sets the timestep for subsequent simulations

#-------------------- Run the simulation (NVT) -------------------------------------------
fix 23 all nvt temp 50 50 0.01 # fixes temperature for energy minimization of atoms

run 1000

unfix 23

#-------------------- Settings -----------------------------------------------------------
reset_timestep 0

compute 1 all stress/atom NULL  # computes the symmetric per-atom stress tensor for each atom in a group.
compute 2 all temp              # computes the temp of a group of atoms
compute 3 all reduce sum c_1[2] # reduces vector quantities of all stress tensors in y-direction and adds all the quantities to a single scalar value
compute kea all ke/atom         # This is related to temperature

variable stress     equal c_3/vol        # assigns a value to the variable name stress
variable stress_GPa equal v_stress/10000 # converts the stress calculated to GPa

compute    csym all centro/atom fcc
compute peratom all pe/atom 

variable    tmp equal ly
variable     lo equal ${tmp}
variable strain equal (ly-v_lo)/v_lo

#for units metal, pressure is in 1 [bars] = 100 [kPa] = 0.1 [MPa] = 1x10^-4 [GPa] => p2 is in GPa
variable  p1 equal "-pxx/10000"
variable  p2 equal "-pyy/10000"
variable  p3 equal "-pzz/10000"

variable p12 equal "-pxy/10000"
variable p23 equal "-pyz/10000"
variable p13 equal "-pxz/10000"

variable fm equal "(v_p2+v_p3+v_p1)/3" # Hydrostatic stress
variable fv equal "sqrt(((v_p2-v_p3)^2+(v_p3-v_p1)^2+(v_p1-v_p2)^2+6*(v_p12^2+v_p23^2+v_p13^2))/2)" # Von Mises Stress
variable  t equal "v_fm/v_fv"
variable fd equal (((v_p2-v_fm)*(v_p3-v_fm)*(v_p1-v_fm))-(v_p12)^2*(v_p3-v_fm)-(v_p13)^2*(v_p2-v_fm)-(v_p23)^2*(v_p1-v_fm)+2*v_p12*v_p23*v_p13) # Deviatoric Von Mises stress

# principal stresses
variable I1 equal "(v_p1+v_p2+v_p3)"
variable I2 equal "((v_p1)*(v_p2))+((v_p2)*(v_p3))+((v_p1)*(v_p3))-(v_p12)^2-(v_p23)^2-(v_p13)^2"
variable I3 equal "((v_p1)*(v_p2)*(v_p3))-((v_p1)*((v_p23)^2))-((v_p2)*((v_p13)^2))-((v_p3)*((v_p12)^2))+2*(v_p12)*(v_p23)*(v_p13)"
variable  A equal "(acos(((2*(v_I1)^3)-9*(v_I1)*(v_I2)+27*(v_I3))/(2*((v_I1)^2-(3*(v_I2)))^(3/2))))/3"
variable s1 equal "((v_I1)/3)+(2/3)*(sqrt((v_I1)^2-(3*(v_I2))))*cos(v_A)" 
variable s2 equal "((v_I1)/3)+(2/3)*(sqrt((v_I1)^2-(3*(v_I2))))*cos((v_A)+(2*PI)/3)" 
variable s3 equal "((v_I1)/3)+(2/3)*(sqrt((v_I1)^2-(3*(v_I2))))*cos((v_A)+(4*PI)/3)"

thermo 10 # computes and prints thermodynamic data after every 10 timesteps
thermo_style custom step temp vol press pe ke etotal c_2 v_strain v_stress v_stress_GPa v_p2

#---------- output file settings -------------------
fix fo1 all ave/time 1 3 3 c_2 v_strain v_stress v_stress_GPa v_p2 file stress_vs_strain.txt

#---------- output file settings -------------------
#dump 1 all custom 10000 Cu_defect_vertical_tensile_50K.lammpstrj id type x y z 
# dumps snapshot of atom quantities every 10000 timesteps to the specified file
#---------------------------------------------------
dump 2 all cfg 10000 cfg/Cu_defect_vertical_tensile.*.cfg mass type xs ys zs id type xs ys zs c_csym c_peratom c_kea
dump_modify 2 element Cu
#---------------------------------------------------
#dump 3 all custom 50000 stress_peratom* id type x y z c_1[1] c_1[2] c_1[3] c_1[4] c_1[5] c_1[6]
#---------------------------------------------------
#log NVTlog_compress_al.data


velocity all create 10 873847 rot yes mom yes dist gaussian

#-------------------- Run the simulation -------------------------------------------------

# temperature controller
# fixes the temperature (50 K) and pressure of the given system
fix 1 all nvt temp 50 50 0.01

# tensile deformation
# application of tensile deformation force of 0.0001/dt [1/ps]
fix 2 all deform 1 y erate 0.0001 units box

# gives the stress-strain data
fix 3 all print 10 "${strain} ${p2}" file stress_strain_data_Cu_defect_vertical_tensile_50K.txt

fix def all print 1 "${strain} ${p2} ${s1} ${s2} ${s3} ${fm} ${fv} ${t} ${fd}" file Cu_defect_vertical_tensile_von.txt

# number of iterations
run 6000000

#-------------------- End ----------------------------------------------------------------

#-----------------------------------------------------------------------------------------
# Note: stress_strain_data_Cu_defect_vertical_tensile_50K.txt (output file)
# Data: strain, p2 (stress of y direction)
#-----------------------------------------------------------------------------------------
# Note: Cu_defect_vertical_tensile_von.txt (output file)
# Data: strain, p2 (stress of y direction),  principal stresses (s1, s2 and s3),
# fm (Hydrostatic stress), fv (Von Mises Stress), t (fm/fv), fd (Deviatoric Von Mises stress)
#-----------------------------------------------------------------------------------------

#-----------------------------------------------------------------------------------------
# Note
# compute        peratom all stress/atom NULL
# compute        p all reduce sum c_peratom[1] c_peratom[2] c_peratom[3]
# variable       press equal -(c_p[1]+c_p[2]+c_p[3])/(3*vol)
# thermo_style   custom step temp etotal press v_press
# metal unit: press = bar = 0.1 MPa, length = Angstrom = 1e-10 m
#-----------------------------------------------------------------------------------------