PREC=A
#ENCUT=400
ISYM=0
ALGO=Fast
EDIFF=1.000000e-04
LREAL=False
NCORE=24
#KPAR=1
NELM=120
NELMIN=4
ISIF=2
ISMEAR=0
SIGMA=0.05000
IBRION=-1
NSW=0
LWAVE=F
LCHARG=F
#PSTRESS=0
KSPACING=1.00000
KGAMMA=.TRUE.
