neural network potential
(Lammps Version: 28 Mar 2023: https://docs.lammps.org/Packages_details.html)

pair_style snap command
ML-SNAP package

pair_style mliap command
ML-IAP package

pair_style rann command
ML-RANN package

pair_style pace command (windows version: available as plugin)
ML-PACE package

pair_style pod command
ML-POD package
Examples about training and using POD potentials are found in the directory lammps/examples/PACKAGES/pod.

pair_style quip command (windows version: not fully ported to Windows)
ML-QUIP package
https://github.com/libAtoms/QUIP
GAP potential: https://libatoms.github.io/GAP/data.html

pair_style hdnnp command
ML-HDNNP package
The pair style uses an interface to the n2p2 library (Singraber, Behler and Dellago 2019) which is available on Github here (https://github.com/CompPhysVienna/n2p2)

pair_style 
 command
https://github.com/gangapun/lammps-pair-pinn

pair_style deepmd command
https://docs.deepmodeling.com/projects/deepmd/en/master/getting-started/lammps.html
