# 4.2 Creation of Cu-Zr-Al glassy alloys
#  4.2.1 Creation of Cu49Zr49Al2 alloy
#(for size X=50 Angstrom, Y=100 Angstrom, Z=100 Angstrom & cooling rate 10^14 K/s)
# LAMMPS 64-bit 22Dec2022-MSMPI
clear
#-------------------- Environment Settings -----------------------------------------------
variable  Tdesird equal 2300.0 # Desired Temperature [K]

variable Nsteps_h equal  10000 # Number of simulation cycles (heating process)
variable Nsteps_a equal  20000 # Number of simulation cycles (anneling process)
variable Nsteps_c equal  10000 # Number of simulation cycles (cooling process)

variable DumpFreq equal    100 # For print out

variable    dt_ps equal  0.002 # 0.002 [ps] = 2 [fs]

#-------------------- Initialization -----------------------------------------------------
echo both
units metal
dimension 3
boundary p p p

#-------------------- Atom & Lattice description ----------------------------------------
atom_style atomic

region box block 0 50 0 100 0 50 units box
create_box 3 box

lattice fcc 3.61

region cu block 0 50 0 100 0 50 units box

create_atoms 1 region cu units box

# creating composition by using set command for cuzral alloy 
set region cu type/fraction 2 0.49 12393 # set Zr 49%, randomly
set region cu type/fraction 3 0.02 12393 # set Al  2%, randomly

#-------------------- Force field --------------------------------------------------------
pair_style eam/alloy
pair_coeff * * CuZrAl_Zhou04.eam.alloy Cu Zr Al

#-------------------- Energy Minimization ------------------------------------------------
# 0 [K], structure optimization
minimize 1.0e-4 1.0e-6 10000 100000

#-------------------- Settings -----------------------------------------------------------
reset_timestep 0

timestep ${dt_ps}

thermo ${DumpFreq}
thermo_style custom step temp vol press etotal

velocity all create 300.0 873847 rot yes mom yes dist gaussian

# calculates the radial distribution function (RDF) and output file
compute myRDF all rdf 1000
fix 11 all ave/time 1000 1 1000 c_myRDF[*] file cuzral2.rdf mode vector

#-------------------- Run the simulation -------------------------------------------------
# Heat treatment

# heaging proces
#---------------------------------------------------------
dump            d2 all cfg ${DumpFreq} cfg/run.*.cfg mass type xs ys zs id type vx vy vz fx fy fz
dump_modify     d2 element Cu Zr Al
#---------------------------------------------------------
fix 2 all npt temp        300 ${Tdesird} $(100*dt) iso 0.0 0.0 $(1000*dt)
run ${Nsteps_h}
unfix 2
undump d2

# anneling process
#---------------------------------------------------------
dump            d3 all cfg ${DumpFreq} cfg/run.*.cfg mass type xs ys zs id type vx vy vz fx fy fz
dump_modify     d3 element Cu Zr Al
#---------------------------------------------------------
fix 3 all npt temp ${Tdesird} ${Tdesird} $(100*dt) iso 0.0 0.0 $(1000*dt)
run ${Nsteps_a}
unfix 3
undump d3

# cooling process
#---------------------------------------------------------
dump            d4 all cfg ${DumpFreq} cfg/run.*.cfg mass type xs ys zs id type vx vy vz fx fy fz
dump_modify     d4 element Cu Zr Al
#---------------------------------------------------------
fix 4 all npt temp ${Tdesird}        300 $(100*dt) iso 0.0 0.0 $(1000*dt)
run ${Nsteps_c}
unfix 4
undump d4

#--------------------------------------------------------------------------------
# The calculation conditions for this time are as follows.
#--------------------------------------------------------------------------------
variable heating_rate equal "(v_Tdesird - 300) / ( v_dt_ps * v_Nsteps_h ) * 1e-2"
print "heating rate = ${heating_rate} x 10^14 [K/s]"
#--------------------------------------------------------------------------------
print "anneling time = $(v_dt_ps*v_Nsteps_a) [ps]"
#--------------------------------------------------------------------------------
variable cooling_rate equal "(v_Tdesird - 300) / ( v_dt_ps * v_Nsteps_c ) * 1e-2"
print "cooling rate = ${cooling_rate} x 10^14 [K/s]"
#--------------------------------------------------------------------------------

#-------------------- Output data file ---------------------------------------------------
write_data cu49zr49al2.txt # output data for "4.2.1.4_Tensile_deformation"

#-------------------- End ----------------------------------------------------------------

#-----------------------------------------------------------------------------------------
# Temp difference = 2300 K - 300 K = 2000 K
# Total time taken for cooling = timestep x no of iterations in quenched step = (0.002 x 10000) ps
# So cooling rate = 2000 K / (0.002 x 10000) ps = 10^14 K/s for the above in.file
#-----------------------------------------------------------------------------------------