BEGIN
BEGIN_PATH_INPUT
&PATH
 restart_mode = 'restart',
 string_method = 'neb',
 nstep_path = 60,
 opt_scheme = 'broyden',
 num_of_images = 7,
 !CI_scheme = 'auto',
 !first_last_opt = .TRUE.
/
END_PATH_INPUT
BEGIN_ENGINE_INPUT
&CONTROL
 prefix = 'LiPO4'
 outdir = 'temp',
 pseudo_dir = './',
/
&SYSTEM
 ibrav = 0,
 nat = 127,
tot_charge=-1,
 ntyp = 3,
 ecutwfc = 60.0,
 occupations = 'fixed',
 !nosym = .TRUE.
 !smearing = 'mp',
 !degauss = 0.03,
/
&ELECTRONS
 electron_maxstep = 200,
mixing_mode = 'plain', 
mixing_beta = 0.7,
mixing_ndim=16
/
ATOMIC_SPECIES
 Li 6.941 Li.pbe-s-van_ak.UPF
 O 15.9994 O.pbe-van_ak.UPF
 P 30.973762 P.pbe-van_ak.UPF
K_POINTS automatic
1 1 1 0 0 0
CELL_PARAMETERS { Angstrom}
12.29511202 0.002860219 0.004492876
0.002467399 10.58802771 -0.00773364
0.003658134 -0.007242615 9.997717773
BEGIN_POSITIONS
FIRST_IMAGE
ATOMIC_POSITIONS { crystal }
LAST_IMAGE
ATOMIC_POSITIONS { crystal }
END_POSITIONS
END_ENGINE_INPUT
END