&CONTROL
 calculation = 'relax',
 restart_mode='from_scratch',
 prefix = 'Li'
 outdir = 'temp',
 pseudo_dir = './',
/
&SYSTEM
 ibrav = 0,
 nat = 99,
tot_charge = -1,
 ntyp = 3,
 ecutwfc = 30.0,
 occupations = 'fixed',
 !nosym = .TRUE.
 !smearing = 'mp',
 !degauss = 0.03,
/
&ELECTRONS
electron_maxstep = 1000,
mixing_mode = 'plain', 
mixing_beta = 0.1,
mixing_ndim=12
/
&ions
ion_dynamics = 'bfgs',
/
&CELL
 cell_dynamics = 'bfgs' ,
 press = 0, 
 cell_factor = 3,
/
ATOMIC_SPECIES
 Li 6.941 Li.pbe-s-van_ak.UPF
 O 15.9994 O.pbe-van_ak.UPF
 P 30.973762 P.pbe-van_ak.UPF
CELL_PARAMETERS { Angstrom}
 17.0336723328 0.0000000000 0.0000000000
 0.0017676182 5.5635315948 0.0000000000
 -2.3835290088 -0.0315687276 13.2267909119
