&CONTROL
 calculation = 'vc-relax',
 restart_mode = 'restart',
 prefix = 'Li'
 outdir = 'temp_new',
 pseudo_dir = './',
/
&SYSTEM
 ibrav = 0,
 nat = 127,
tot_charge = -1,
 ntyp = 3,
 ecutwfc = 60.0,
 occupations = 'fixed',
 !nosym = .TRUE.
 !smearing = 'mp',
 !degauss = 0.03,
/
&ELECTRONS
electron_maxstep = 300,
mixing_mode = 'plain', 
mixing_beta = 0.7,
mixing_ndim=12,
diagonalization='cg',
/
&ions
ion_dynamics = 'bfgs',
/
&CELL
 cell_dynamics = 'bfgs' ,
 press = 0, 
 cell_factor = 3,
/
ATOMIC_SPECIES
 Li 6.941 Li.pbe-s-van_ak.UPF
 O 15.9994 O.pbe-van_ak.UPF
 P 30.973762 P.pbe-van_ak.UPF
CELL_PARAMETERS { Angstrom}
 12.2756175995 0.0000000000 0.0000000000
 0.0000000000 10.5211572647 0.0000000000
 0.0000000000 0.0000527625 9.9059877394