#LAMMPS Input file
# Title
clear

# ----- condition settings -----

variable        tempm  index  1073.0 # K (heat)

variable        temph  index   673.0 # K (cool No.1)

variable        tempc  index   273.0 # K (cool No.2)

variable        pres   index   0.001 # 0.0001 MPa (bar units)

variable        Erate  index    0.00 # 1/(1.0 fs), if Erate < 0.0 (compress)

variable        fs     index  0.0010 # 1.0 fs
variable        ps     index      20 # 20 ps

# -----other settings -----
variable        nstep  equal ${ps}/${fs}
variable        nsteph equal ${ps}/${fs}
variable        nstepc equal ${ps}/${fs}
variable        tdamp  equal ${fs}*100
variable        pdamp  equal ${fs}*1000

# ----- Structure settings -----
units           metal
atom_style      atomic
dimension       3
boundary        p p p
read_data       data.in
replicate       6 3 1
timestep        ${fs}

# ----- Potential settings (MEAM)-----
# -----HEA (Co-Ni-Cr-Fe-Mn)
pair_style      meam/c
pair_coeff      * * ../potentials/meam/CoNiCrFeMn.HEA.library.meam Co Ni Cr Fe Mn ../potentials/meam/CoNiCrFeMn.HEA.meam Co Ni

# ----- Potential settings (EAM)-----
#pair_style      eam/alloy
#pair_coeff      * * ../potentials/eam/FeNiCrCoCu-heafixed.setfl Co Ni
# -----(Ni-Al-Co)
#pair_style      eam/alloy
#pair_coeff      * * ../potentials/eam/Mishin_updated-Ni-Al-Co-2013.eam.alloy Co Ni
# -----(Al-Ti-Fe-Co-Ni)
#pair_style      eam/alloy
#pair_coeff      * * ../potentials/eam/Zhou04/AlTiFeCoNi_Zhou04.eam.alloy Co Ni

# Need to set mass to something, just to satisfy LAMMPS (COMB, BOP, SW or tersoff)
#mass 1 58.9332 # Co
#mass 2 58.6934 # Ni

# ----- Relax calculation (0 K) -----
thermo_style    custom step etotal temp lx vol press pxx pyy pxy
thermo          10

fix             f1 all box/relax iso 0.0
minimize        1.0e-10 0.0 1000 100000
unfix           f1

# ----- Output setting -----
dump            d1 all cfg 100 cfg/run.*.cfg mass type xs ys zs id type
dump_modify     d1 element Co Ni

# ----- Check equilibriation setting -----
variable        energy equal etotal
variable        temperature equal temp
fix             fout1 all ave/time 1 100 100 v_energy v_temperature file out_energy.txt

# ----- Equilibriation (heat)-----
velocity        all create 10.0 123456
fix             f1 all npt temp 10.0 ${tempm} ${tdamp} iso 0.0 ${pres} ${pdamp}
run             ${nstep} # 20 ps
unfix           f1

# ----- Calculation (cool No.1)-----
fix             f1 all nvt temp ${tempm} ${temph} ${tdamp}
run             ${nsteph} # 20 ps
unfix           f1

# ----- Calculation (cool No.2)-----
fix             f1 all nvt temp ${temph} ${tempc} ${tdamp}
run             ${nstepc} # 20 ps
unfix           f1

# ----- Calculation -----
fix             f1 all deform 1 x erate ${Erate} remap x
fix             f2 all nvt temp ${tempc} ${tempc} ${tdamp}
run             ${nstep} # 20 ps
unfix           f1
unfix           f2

# ----- Radial Distribution Function -----
#comm_modify     cutoff 14
compute         distribution all rdf 240
fix             f1 all ave/time 1 1000 3000 c_distribution[*] file out_rdf.txt mode vector

# ----- Mean Square Displacement -----
group           Co type 1
compute         Comsd Co msd
fix             f2 all ave/time 1 1 5 c_Comsd[*] file out_Co_msd.txt
# -----
group           Ni type 2
compute         Nimsd Ni msd
fix             f3 all ave/time 1 1 5 c_Nimsd[*] file out_Ni_msd.txt
# -----
compute         allmsd all msd
fix             f4 all ave/time 1 1 5 c_allmsd[*] file out_all_msd.txt

fix             f5 all nvt temp ${tempc} ${tempc} ${tdamp}
run             3000

# ----- Output restart data -----
write_data data.in.restart