# ---------- Create Atoms --------------------- 
lattice 	fcc ${latconst}
region	box block 0 1 0 1 0 1 units lattice
create_box	1 box

lattice	fcc ${latconst} orient x 1 0 0 orient y 0 1 0 orient z 0 0 1  
create_atoms 1 box
replicate 5 5 5

# ---------- Define Interatomic Potential --------------------- 
pair_style eam/alloy 
pair_coeff * * FeNiCrCoCu-heafixed.setfl Ni
neighbor 2.0 bin 
neigh_modify delay 10 check yes 
 
# ---------- Define Settings --------------------- 
compute eng all pe/atom 
compute eatoms all reduce sum c_eng 

# ---------- Run Minimization --------------------- 
reset_timestep 0 
#fix 1 all box/relax iso 0.0 vmax 0.001
thermo 10 
thermo_style custom step pe lx ly lz press pxx pyy pzz c_eatoms 
min_style cg 
minimize 1e-25 1e-25 5000 10000 

variable natoms equal "count(all)" 
variable teng equal "c_eatoms"
variable length equal "lx/5"
variable ecoh equal "v_teng/v_natoms"

print "Total energy (eV) = ${teng};"
print "Number of atoms = ${natoms};"
print "Lattice constant (Angstoms) = ${length};"
print "Cohesive energy (eV) = ${ecoh};"

print "${latconst} ${ecoh}" append lattice_vs_energy.txt

