# A. L. Bowman et al., Polymer 170 (2019) 85-100.: https://doi.org/10.1016/j.polymer.2019.02.060
# Table S3: LAMMPS input decks for the minimization, equilibration and creep deformation process

Clear
units metal
boundary p p p
atom_style atomic

read_data PE_creep_system.dat

pair_style meam
pair_coeff * * library.meam C H CH.meam C H

# Set Timestep for Simulation
timestep 0.0004

######################################################################
# Minimization

minimize 1.0e-10 1.0e-12 80000 100000

######################################################################
# NPT Equilibration

# Computes Mean Squared Displacement
compute msd1 all msd

# Initialized System to 250K
velocity all create 250 1231 dist gaussian

# Fix for NPT Dynamics
fix 1 all npt temp 250 250 0.04 iso 0 0 0.4 drag 2

# Data Dumps
thermo_style custom step temp press etotal vol density pxx pyy pzz c_msd1[4]
thermo 1000
restart 10000 restart_NPTiso_250_a.mpiio restart_NPTiso_250_b.mpiio
dump 1 all custom 100000 atoms_unwrapped.xyz id element xu yu zu x y z
dump_modify 1 element C H

# Run Equilibration
run 20000000

# Unfix and Undump
unfix 1
undump 1

######################################################################
## Creep Deformation

## Variables to print stress/strain

# Stress
variable p2 equal "-pxx/10"
variable p3 equal "-pyy/10"
variable p4 equal "-pzz/10"

#Strain
variable tmp equal "lx"
variable L0x equal ${tmp}
variable xstrain equal "(lx - v_L0x)/v_L0x"
variable p1 equal v_xstrain
variable sx equal v_xstrain

# Poisson Contraction
variable Ly equal "ly"
variable L\zZ equal "lz"

## Creep Setup (NPT control)
fix 1 all npt temp 250.0 250.0 0.02 x -750 -750 .004 y 0 0 0.04 z 0 0 0.04 drag 2

### Data Dumps
thermo_style custom step temp pxx pyy pzz lx ly lz v_xstrain
thermo 1000

# Prints strain and box information to file for plotting
fix def1 all print 10 "${p1} ${p2} ${tmp} ${Ly} ${Lz}" file PE2_ss_nc10_cl1000.def1.txt screen no

# Prints atom snapshots
dump 2 all custom 400 atoms_unwrapped_*.xyz id element xu yu zu x y z
dump_modify 2 element C H

# Run
run 2000000

# Unfix and Undump
unfix 1
undump 2

print "All Done"
